 # Version information for this restart file 
 # current date 2023-12-13 20:13:57.290
 # current working dir /scratch/work/courses/CHEM-GA-2671-2023fa/students/sea438/comp-lab-class-2023/Week12/Runs/Proton
 # Program compiled at                              Sat Dec 12 18:27:15 EST 2020
 # Program compiled on                                         cs001.nyu.cluster
 # Program compiled for                                                nyu-intel
 # Source code revision number                                       git:8c64c6e
 &GLOBAL
   PRINT_LEVEL  LOW
   PROJECT_NAME proton_aimd_1ps_every0.5fs
   RUN_TYPE  MD
   WALLTIME 21600
 &END GLOBAL
 &MOTION
   &GEO_OPT
     OPTIMIZER  BFGS
     MAX_ITER  100
     MAX_DR     3.0000000000000001E-03
     &BFGS
     &END BFGS
   &END GEO_OPT
   &MD
     ENSEMBLE  NVT
     STEPS  2000
     TIMESTEP     4.9999999999999994E-01
     STEP_START_VAL  1500
     TIME_START_VAL     7.5000000000000762E+02
     ECONS_START_VAL    -1.1027761563273546E+03
     TEMPERATURE     3.0000000000000000E+02
     &THERMOSTAT
       TYPE  GLE
       REGION  MASSIVE
       &GLE
         NDIM  5
         A_SCALE     1.0000000000000000E+00
         A_LIST     1.8595758612559999E+02    2.7263853498399998E-01    1.1526100454610001E+01   -3.6414578262600003E+01 \
             2.3173375816020001E+02
         A_LIST    -2.7809524712060002E-01    8.5951591808710006E-05    7.2189048017650004E-01   -1.9844539343859999E-01 \
             4.2409257583420001E-01
         A_LIST    -1.4825808131210000E+01   -7.2189048017650004E-01    1.3590902121280000E+00    5.1498896280349999E+00 \
            -9.9949268450990001E+00
         A_LIST    -1.0372189126880000E+01    1.9844539343859999E-01   -5.1498896280349999E+00    2.6661910891169999E+01 \
             1.1507715495310000E+01
         A_LIST     2.1801346360420001E+02   -4.2409257583420001E-01    9.9949268450990001E+00   -1.1507715495310000E+01 \
             3.0958394565589998E+02
         &THERMOSTAT_ENERGY
               4.4360043303914272E-03
              -2.5332254231738927E-03
              -1.1068004346636957E-03
              -4.2498430360233717E-04
              -1.8009435837349933E-02
               9.2342814821630165E-03
               2.1257339715150120E-03
              -4.0292227348916613E-03
               4.3709145743192580E-03
               2.7023385629230019E-03
               5.2709724938748382E-03
              -1.1101310787609182E-03
              -4.1804715551105824E-04
              -9.5120503120239373E-03
               7.5454644215868167E-03
              -7.3033801118718572E-03
               5.0640322889134630E-03
              -1.2369760764982774E-03
               1.8519663716291142E-03
              -2.0233851121822608E-05
               3.2129164410206095E-03
               1.6549581550932609E-03
              -4.9071656648103411E-03
              -3.2621447270317068E-06
               1.9852985009547060E-04
              -5.6093350483485613E-03
               6.4678379887164652E-03
              -3.6051061492864929E-05
              -8.6103816120210045E-04
               1.2901708068725763E-03
              -3.2403410103831465E-03
              -1.5259110984694065E-03
               1.3932918812065639E-02
               1.1455137920434980E-03
              -1.3388732747067306E-02
               1.4346549474977160E-02
              -2.2843206369930588E-03
              -1.8432981462462327E-03
              -8.9633118518028473E-04
              -8.4604357141534973E-03
               9.3795622930461229E-04
               1.8550269467185530E-03
               3.1961405422008377E-03
               7.0924724461218606E-04
               1.9378807667578635E-03
               1.3253349923452601E-03
              -4.8263141384460792E-03
               1.1107244764201033E-02
               2.6109181021319490E-04
               4.8156285052434908E-05
               3.3422211247126376E-03
              -1.1639501447651300E-02
              -1.3978167363958905E-03
               1.6545739921854766E-02
              -3.6813704404463051E-03
              -1.0531094420568137E-05
               3.6749607792049993E-03
               7.4619161628909083E-04
               6.6272421744699083E-03
               1.4066335572459152E-03
              -1.0152138375919870E-02
              -7.1423556853892900E-03
               1.2825361591914334E-02
              -3.0517470139207795E-03
              -2.3052430448204787E-03
               2.0215410282769359E-03
              -1.4822696078232746E-02
               1.5550562337949995E-02
               9.7373914461784151E-03
              -5.7547038714008281E-04
              -8.8311639119230453E-03
               2.5545810271454740E-03
              -2.7916082197581671E-04
               6.1817393034427218E-03
               1.3764025445508867E-03
              -8.0851367234326312E-03
               1.0613370280870057E-02
               1.0299278415964796E-02
               1.0826822194238129E-02
              -6.7316477644128988E-03
              -1.2619305253533440E-02
              -4.2382417629364330E-03
               2.0553392267996132E-03
              -6.1956448415673268E-04
               4.4389149682383015E-04
               3.6990867161995709E-03
              -2.0042052828234663E-03
               7.2029570590603628E-03
               3.6181723249192818E-03
              -5.6582573186829540E-04
               3.1948380953447991E-03
              -4.8839999044601110E-03
              -4.4756313059770040E-04
              -1.9814452295882491E-03
              -9.1709120978459499E-03
               7.5336240703708290E-03
               7.6797660226924809E-03
              -2.4594093851716637E-03
               3.0253709570066019E-03
               4.7317228992773547E-03
              -4.0783140252178439E-03
              -2.6913755522901769E-03
              -3.6152586325560302E-03
              -1.0284785233946258E-03
              -4.6407035889536848E-03
               8.1796564883945180E-03
               6.9621695400089818E-03
              -4.8602486384574806E-03
               6.8042956313818549E-03
              -3.8544411569795506E-03
              -3.2502304323512960E-03
              -4.1550343680493490E-03
               5.0673594418569248E-03
               7.4102454847141267E-03
               1.7253992004693870E-03
              -5.1658126836542457E-03
              -2.0096326789433264E-03
               4.1972364891544730E-03
               2.6106783044865349E-03
              -1.0214880261969128E-03
               8.4937926912770638E-04
               5.2132274653657667E-03
               1.5913698721897419E-03
              -3.0050594917107824E-03
              -6.4285419892537755E-03
              -8.5394581321684947E-03
               5.7872953120271745E-03
               1.5223503409419479E-03
               2.6541113380890427E-03
              -2.1777117796656408E-03
              -8.9121394095496376E-04
               3.8337353582774368E-03
              -9.7325585316543025E-04
               1.7306518476943359E-03
               4.3561637841676510E-04
              -1.3521112747155732E-03
              -1.0193192632945033E-03
              -8.5279657813485971E-03
              -2.7192110894878746E-03
              -6.0560504793149303E-04
              -4.7628390084155005E-03
               1.3316453619266486E-02
               1.3965325169222772E-02
              -1.1732330708755859E-02
              -3.9979230432668229E-03
              -2.6803224207432976E-03
               1.4147068663725533E-03
              -1.7682309343368952E-03
              -5.6459006713884411E-03
               3.2444222592421215E-03
              -9.3953803757427217E-03
               1.2192851829322747E-03
               1.5370337280422380E-03
              -6.7504982118658987E-03
               2.9369899484503179E-03
               3.3259484905637619E-03
               8.9457789110381769E-03
              -7.8963885803851432E-04
              -8.3916946103931630E-03
               2.4356057690420540E-03
               1.7108925033437010E-04
              -5.5241705522507817E-03
              -1.8090221722959594E-03
               5.0321334014799719E-03
               8.7890931429145704E-03
               1.3079964462611541E-02
               1.0272859660888556E-03
              -9.7521596229744791E-03
              -5.0668424851021601E-03
              -3.5229759349875286E-03
               3.8904641113765887E-03
               3.9637467330476644E-04
               3.6680783065262028E-03
              -3.5501919011281173E-03
              -5.7420033778792226E-03
              -1.0552029616779221E-02
               6.0747512680350297E-03
               1.0483653204703307E-03
              -7.2190602875228486E-03
               1.4660330900605844E-02
               2.6387158146626684E-04
               3.9997684309910223E-03
               2.6825094311862226E-03
              -1.8892805894252223E-02
               1.6354363856250696E-02
              -2.0223126848206959E-03
              -1.4142220781618174E-03
              -2.1814369706024466E-03
              -7.1356181652092636E-03
               1.8073943270453452E-03
              -3.3119299562004230E-03
              -1.0256687354173845E-03
              -3.8601425406468593E-03
               9.7304108064373493E-03
               6.8104266681601510E-03
              -8.5528607711574025E-03
              -1.6314450825822794E-03
              -8.6588556981365659E-04
              -2.6972663637322329E-04
              -1.6342826252322854E-03
              -3.2299731235114490E-03
              -1.4287120345844095E-03
              -4.6947517597983072E-03
               5.3840389071173394E-03
               1.9159739155866751E-03
               3.6093616097209445E-04
              -1.9608638456851497E-03
               4.2902400563243877E-03
               2.8624296590949940E-03
              -1.0767082837067851E-03
               4.4149723027422051E-03
              -9.4057847544577605E-03
               6.0119082311238725E-03
              -2.8084072080794610E-03
               2.3549135083944219E-04
               9.8761102090196562E-03
              -3.6000229458111634E-03
              -2.0168428206991159E-03
              -7.3934914532515397E-04
              -4.9934066633114471E-03
               1.5677201724600400E-03
              -1.1342629287050539E-02
              -2.3051700476123721E-04
               2.5986891095269114E-03
               2.4510058306240409E-03
              -1.0842465577556417E-03
               6.0660825878784729E-04
               4.8942302129294007E-04
              -6.7658014629697104E-03
               4.5519973796161592E-03
              -4.9631641143992756E-03
               6.8829619293547667E-03
               6.8377913527990332E-03
              -5.0383778295698114E-03
               2.6834701079980314E-03
              -4.7099334048950206E-03
              -4.6816508975123820E-03
              -2.5710297124984273E-03
               2.6209704634713050E-03
               7.0248555465228096E-03
               5.5776907694536750E-03
              -3.9138596890042326E-03
               5.8330198177373822E-03
              -2.8646367049912891E-03
               5.6391720529550774E-05
               1.5852050596232435E-03
              -2.0103594744982352E-03
              -1.7765698507231926E-03
              -2.1992594038829499E-03
              -2.0730292983890878E-03
               4.2582583680630020E-03
              -4.4467980102960939E-03
              -3.3942595915820361E-03
              -3.2300632910001945E-03
               2.3699288968261146E-03
              -3.8572153575974471E-03
               1.3211212961253256E-02
              -8.8440657981958652E-03
               2.6495555711767991E-03
              -1.5708088171548933E-02
               1.8313829985961112E-02
               1.7258783547221847E-03
               7.7035611290952842E-03
               1.0079043620301403E-02
               8.2638294737141689E-03
              -8.6886474561926001E-03
               9.4433294375361897E-04
              -5.1623460099209781E-03
              -2.7538731559349889E-03
               4.7266179393182133E-03
              -3.5305117148281533E-03
              -9.0524255444407627E-03
               8.1369479304094720E-03
               1.1516166272711270E-02
              -2.8511745734709324E-03
              -1.6132795823381111E-03
              -1.5451889509256167E-02
               1.5509913721816171E-02
              -2.9029066168374711E-03
               5.0620371966053597E-03
              -6.0691288632805478E-03
               4.5866875966246636E-03
               2.8051449522619055E-03
              -5.6535328795402212E-03
              -6.1573251150972355E-03
              -5.7031900447800134E-03
               2.5519589642868136E-03
              -5.2288050664027821E-04
              -9.3371206476400570E-03
               2.7453005124271508E-04
              -8.6372703353807250E-04
               3.1149607258900789E-03
               2.2054715317064389E-03
              -7.7909099986742062E-03
              -1.0298419323566358E-03
               3.5714056131064828E-04
              -8.3231992667469751E-03
              -8.0231258030096127E-04
               3.7452647023401240E-04
              -6.8408978516329268E-03
              -1.7137653782195389E-03
               3.6697960629189291E-03
               9.0453469493879720E-03
              -2.9072345468799045E-03
               9.2937035690816780E-03
              -1.4458664652376841E-02
              -3.4665909122549429E-03
              -2.3662157444701262E-03
               4.1614320246127993E-03
               1.1779325338450166E-02
               2.4161132840192718E-03
              -1.6653760191384731E-02
               8.1459466033686079E-03
               1.1651941016760193E-02
              -1.0733840401299297E-02
               5.3000957596273726E-03
               3.9449264401013300E-03
               3.1739748558335060E-03
              -1.3349816285306602E-02
              -5.2042892091010932E-04
               2.0634676408792428E-02
              -6.4694832657948799E-03
              -5.9905634298426918E-03
               5.0883202890250542E-03
              -1.9012970582209735E-03
               3.3002279001682930E-03
               2.9474903104497628E-03
               8.3123259371469123E-04
              -6.2829588352657862E-03
              -9.6398250810459853E-03
               1.3004147534523619E-03
              -9.4966600769539750E-03
               8.3823053628442785E-03
              -1.9750645148802299E-03
               4.8092686338622164E-03
               8.6034571404710344E-04
               7.9558679562174786E-03
               3.1015787329511466E-03
              -8.3860945284250157E-03
               8.3013125456939015E-03
              -6.8050724714107573E-04
              -4.1041840401732079E-03
               3.3408236153920703E-03
              -6.0875475098783787E-03
              -1.6183952117640660E-03
              -1.7164323553030291E-03
               5.8538503505720747E-04
              -1.3681144745972878E-04
              -3.8253364721288702E-03
               4.1355947023357436E-03
               3.4021319932340138E-03
               8.6341205000013948E-03
              -1.1201672852466980E-02
              -1.2187194966304339E-03
              -8.9618614279121690E-03
               4.2990590851986598E-03
              -1.5989563471601072E-03
              -4.4564129256617849E-03
               8.9899250286814018E-04
               3.4359710793622471E-03
              -1.7704267566260984E-03
              -1.1614813875881161E-03
              -1.0714600128311965E-02
              -5.2743527218298654E-03
               4.3906692330715176E-04
               1.7601237643069478E-02
               2.8556055806663004E-03
              -1.2422024604130913E-03
              -7.9282358266191642E-03
              -8.5843419456919177E-03
               7.6850967920888752E-03
              -1.1059079430108276E-03
              -2.8218993695346777E-03
               1.1458547509495581E-03
               2.2464336556261835E-03
              -3.1698405095431682E-03
              -3.7157743217276027E-03
              -9.5357271125229846E-04
              -1.4207081540388651E-03
              -1.0403021804395668E-03
               4.1081908545556062E-03
               3.1296921120216765E-03
               1.5520123320437351E-02
              -8.6496096994067503E-03
              -2.1447214626334244E-02
               1.9893916836402261E-02
              -6.5912555160842646E-03
              -7.4645544275993205E-03
               1.2469773120812485E-03
              -5.0058946532718701E-04
              -6.7830619496414470E-03
               1.9208775761186788E-02
              -1.0348652040764552E-03
               3.9764694224034888E-03
              -2.8871087496475868E-03
               7.8031624586109597E-03
              -7.9102634278222089E-03
               4.8020528221526596E-03
               4.5498526908412896E-03
              -1.5732691010565285E-02
               1.1452126240381121E-02
               5.1953544066876407E-04
              -1.1088375957574843E-02
               8.1266128048381701E-03
               8.3099337327756477E-03
              -1.7805478804835945E-04
               1.6414733602917455E-03
               6.3106009073950415E-03
              -7.8054918905437450E-03
               2.6763643000171085E-03
              -2.4089039836485418E-04
              -9.4086926306628132E-04
              -2.4265615247968347E-03
               7.5059470289848898E-03
              -9.5759977728872535E-03
               5.3901605204367984E-03
               2.3178514457674678E-03
              -6.3737147175528305E-03
              -6.2824324576772495E-03
               9.0244727418908790E-03
              -3.7894150929774916E-03
              -3.8997362520314760E-03
               1.4749740643650366E-02
               5.5501090909498806E-03
               1.1152315472858545E-02
               3.1647545799022253E-03
               1.0969525470679186E-02
               3.3094285320152536E-03
              -7.3032710498923117E-03
               1.1998280864724467E-02
               1.0218410623276239E-03
               7.5974539240505337E-03
               4.0125474633920211E-04
               1.0782334099038211E-02
               1.1485661717525127E-02
               4.4483001585128717E-03
               2.2880092391186756E-04
               2.1172785370609255E-03
              -1.5156780041819461E-03
              -8.1664646130162246E-03
               4.1641105073250634E-03
               6.1481010911070251E-03
              -4.2364852108543400E-03
               5.2619788304952043E-03
               2.6046025873421386E-04
               5.1065747588416067E-03
               6.3813041563588208E-03
               7.0807513117918672E-03
               4.5403517710088459E-03
              -1.3904296539496619E-02
              -1.1783686710913094E-03
              -2.7284488314270193E-03
               2.2236675638230307E-03
              -1.8062666160721021E-03
              -3.2561987616129785E-03
              -7.2490628943423533E-03
              -1.0595541652490026E-02
              -8.9691320865195427E-03
              -3.0973926286946207E-03
               1.0070324170880466E-02
               1.3990278534709246E-02
              -1.5772672611004171E-03
               1.2742489896301261E-03
               7.5232426089043370E-03
               1.0042271074695585E-02
              -2.4925488081237535E-03
              -7.8371812569424815E-03
               1.2310150297690217E-03
               1.2078398854670677E-02
              -1.3351026742890668E-02
              -5.9365406446733162E-03
              -7.2640629064541894E-04
               3.4802589956667907E-03
              -1.2914613673930826E-03
               3.2737289863281368E-03
               6.8796468412928640E-03
               4.2641822252877234E-03
               3.3459942605632625E-03
              -7.2391690294038502E-03
               1.3163061092882008E-02
               1.0916799970685414E-03
              -5.6583259051755392E-03
               3.2423926559985794E-03
               8.8421851632257962E-04
               2.9380967290559435E-03
              -3.2392112757682395E-03
               1.6888070645487267E-03
               1.6236083946872331E-03
               4.2881352816210583E-03
              -5.0120146864817867E-03
               6.1086191166532010E-03
               5.6205535489993585E-03
               1.4370720789049071E-03
              -1.4546572889947646E-03
              -1.2236695211764227E-02
              -1.0642692627454412E-02
               1.1792646893962599E-02
               7.0034874764849601E-03
               4.0347266048537779E-03
               8.1827654014640771E-03
               7.7786828000102944E-04
               8.6294316464681133E-03
              -1.3886462683390735E-02
               1.5809897917701494E-02
               9.3404766479162043E-05
              -1.1721988642867089E-02
              -1.8530719726589035E-03
               1.0180790486728091E-04
               7.5162870875673839E-03
               5.8655881776315184E-04
              -5.7381684887755783E-03
               8.2506797520370215E-03
              -7.6392542086523791E-03
              -3.3037008689274917E-03
               9.5631960519754217E-03
              -8.9075811042822715E-03
              -5.6886048268477134E-03
               2.8038463104870649E-03
               3.8429496342967467E-03
               5.9460467581186980E-03
              -5.6737316086468773E-03
              -2.8930969617830637E-03
               7.8802919247531068E-03
               2.9533079834204680E-03
              -5.4313913522819005E-03
              -3.5653539056332279E-05
              -2.4135067963988260E-03
               3.2065073394422767E-06
               8.8332577013238364E-03
               3.1694617198175156E-03
              -4.2511382941034541E-03
               1.6620105855747838E-03
               7.5906123368991813E-03
              -2.3239527480636069E-03
               4.0171519672357898E-03
               1.7892847368097247E-03
               5.7160965563617912E-03
              -4.7349877340666828E-03
               5.8160498512458336E-03
               6.7450015500092487E-03
              -1.3661412447802915E-03
               4.5585785267630227E-03
              -2.3113886189110840E-03
               6.7959909672977367E-03
               6.6543088305199387E-03
              -2.6170606292422569E-03
               3.1987446206970384E-03
               6.2079139675081741E-03
              -3.4933044995488719E-03
               4.5727781887817892E-03
              -4.3524429288995699E-03
               3.9280329977979377E-03
               3.9130478307894547E-04
              -2.1114843959494367E-03
               2.1287825926337477E-03
               1.6832496689885917E-03
               7.6353458523440165E-03
              -4.5615382815543948E-03
               1.5613757964428154E-02
               8.1739750709294845E-04
               8.3705714992466842E-03
               3.4381910087228212E-03
               1.5076170999910328E-03
              -2.9773368298112229E-03
               1.4362609229436009E-03
              -3.8600808525163701E-03
              -4.3923496250274493E-03
               1.5734395192781156E-03
               1.0190612974730383E-04
               6.2640302689888168E-03
               2.4641465561136494E-03
              -2.3001194998397102E-03
              -1.7158121418102590E-03
              -2.3393230313310524E-02
               9.4572784646246508E-03
               4.3617202684805081E-03
               8.3729324743629669E-03
               2.7874452475266467E-03
              -5.4895472665354812E-03
         &END THERMOSTAT_ENERGY
         &RNG_INIT
Wiener process for Thermostat # 1        1 F T T   1.0570193072987602E-01        2554248455.0        3733268398.0        2096963647.0         915983833.0        1292997779.0         989563289.0             12345.0             12345.0             12345.0             12345.0             12345.0             12345.0             12345.0             12345.0             12345.0             12345.0             12345.0             12345.0
Wiener process for Thermostat # 2        1 F T T  -5.0729818522276993E-01         187792199.0        1332764939.0        1272087322.0         282682701.0         988697858.0        4086000388.0        3692455944.0        1366884236.0        2968912127.0         335948734.0        4161675175.0         475798818.0        3692455944.0        1366884236.0        2968912127.0         335948734.0        4161675175.0         475798818.0
Wiener process for Thermostat # 3        1 F T T   8.9774137220556466E-02        3755061031.0        1753083868.0        1351179932.0         343881147.0        3312142877.0        1244557929.0        1015873554.0        1310354410.0        2249465273.0         994084013.0        2912484720.0        3876682925.0        1015873554.0        1310354410.0        2249465273.0         994084013.0        2912484720.0        3876682925.0
Wiener process for Thermostat # 4        1 F T T   2.1447125495896904E-01        2430503636.0         902227617.0        3039217662.0         205693714.0        2375800914.0        4220709598.0        2338701263.0        1119171942.0        2570676563.0         317077452.0        3194180850.0         618832124.0        2338701263.0        1119171942.0        2570676563.0         317077452.0        3194180850.0         618832124.0
Wiener process for Thermostat # 5        1 F T T  -7.4974817695318574E-01        3949927612.0        4293465109.0         224208328.0         677588237.0        2173092809.0        2514687022.0        1597262096.0        3906379055.0        3312112953.0        1016013135.0        4099474108.0         275305423.0        1597262096.0        3906379055.0        3312112953.0        1016013135.0        4099474108.0         275305423.0
Wiener process for Thermostat # 6        1 F T T  -2.3195632299180402E+00        4147399821.0         968438491.0         174961265.0         382156541.0        3672303660.0        2385050302.0          97147054.0        3131372450.0         829345164.0        3691032523.0        3006063034.0        4259826321.0          97147054.0        3131372450.0         829345164.0        3691032523.0        3006063034.0        4259826321.0
Wiener process for Thermostat # 7        1 F T T  -8.3038096976097500E-03        3725962017.0        3124905816.0        1692649901.0        3685368087.0         990134651.0        3321809881.0         796079799.0        2105258207.0         955365076.0        2923159030.0        4116632677.0        3067683584.0         796079799.0        2105258207.0         955365076.0        2923159030.0        4116632677.0        3067683584.0
Wiener process for Thermostat # 8        1 F T T   7.2955713326517235E-01        1426374835.0        1022225665.0        3431852557.0        2945126969.0        1347790872.0        2047858768.0        3281794178.0        2616230133.0        1457051261.0        2762791137.0        2480527362.0        2282316169.0        3281794178.0        2616230133.0        1457051261.0        2762791137.0        2480527362.0        2282316169.0
Wiener process for Thermostat # 9        1 F T T  -8.3876742673612970E-01        3633457436.0         863053678.0         665967915.0         928783000.0        4027924725.0        3556250224.0        3777646647.0        1837464056.0        4204654757.0         664239048.0        4190510072.0        2959195122.0        3777646647.0        1837464056.0        4204654757.0         664239048.0        4190510072.0        2959195122.0
Wiener process for Thermostat # 10       1 F T T  -6.7138423863751628E-01        3282585865.0         909372753.0         488063086.0        2442536289.0         174422437.0         477575080.0        4215590817.0        3862461878.0        1087200967.0        1544910132.0         936383720.0        1611370123.0        4215590817.0        3862461878.0        1087200967.0        1544910132.0         936383720.0        1611370123.0
Wiener process for Thermostat # 11       1 F T T  -7.2169956836733329E-02        3039538231.0          25912629.0        1608189467.0        1823124278.0        2331127605.0        2449500504.0        1683636369.0         362165168.0         814316280.0         869382050.0         980203903.0        2062101717.0        1683636369.0         362165168.0         814316280.0         869382050.0         980203903.0        2062101717.0
Wiener process for Thermostat # 12       1 F T T  -6.7722400494670465E-01        2762226669.0        4262778377.0        2250707948.0        3120407528.0        3704866228.0        1185520965.0         272317999.0         166758548.0         310112982.0         201045826.0        1680231254.0         118290799.0         272317999.0         166758548.0         310112982.0         201045826.0        1680231254.0         118290799.0
Wiener process for Thermostat # 13       1 F T T  -7.3817531449270457E-01        3689403510.0         367299738.0        3636386471.0        1925893934.0        3355800516.0        3520562622.0        2245755202.0        1652682525.0        2865544364.0         721509566.0         209733568.0         592362218.0        2245755202.0        1652682525.0        2865544364.0         721509566.0         209733568.0         592362218.0