 # Version information for this restart file 
 # current date 2023-12-13 19:05:37.655
 # current working dir /scratch/work/courses/CHEM-GA-2671-2023fa/students/sea438/comp-lab-class-2023/Week12/Runs/Proton
 # Program compiled at                              Sat Dec 12 18:27:15 EST 2020
 # Program compiled on                                         cs001.nyu.cluster
 # Program compiled for                                                nyu-intel
 # Source code revision number                                       git:8c64c6e
 &GLOBAL
   PRINT_LEVEL  LOW
   PROJECT_NAME proton_aimd_1ps_every0.5fs
   RUN_TYPE  MD
   WALLTIME 21600
 &END GLOBAL
 &MOTION
   &GEO_OPT
     OPTIMIZER  BFGS
     MAX_ITER  100
     MAX_DR     3.0000000000000001E-03
     &BFGS
     &END BFGS
   &END GEO_OPT
   &MD
     ENSEMBLE  NVT
     STEPS  2000
     TIMESTEP     4.9999999999999994E-01
     STEP_START_VAL  1000
     TIME_START_VAL     4.9999999999999636E+02
     ECONS_START_VAL    -1.1027761563273546E+03
     TEMPERATURE     3.0000000000000000E+02
     &THERMOSTAT
       TYPE  GLE
       REGION  MASSIVE
       &GLE
         NDIM  5
         A_SCALE     1.0000000000000000E+00
         A_LIST     1.8595758612559999E+02    2.7263853498399998E-01    1.1526100454610001E+01   -3.6414578262600003E+01 \
             2.3173375816020001E+02
         A_LIST    -2.7809524712060002E-01    8.5951591808710006E-05    7.2189048017650004E-01   -1.9844539343859999E-01 \
             4.2409257583420001E-01
         A_LIST    -1.4825808131210000E+01   -7.2189048017650004E-01    1.3590902121280000E+00    5.1498896280349999E+00 \
            -9.9949268450990001E+00
         A_LIST    -1.0372189126880000E+01    1.9844539343859999E-01   -5.1498896280349999E+00    2.6661910891169999E+01 \
             1.1507715495310000E+01
         A_LIST     2.1801346360420001E+02   -4.2409257583420001E-01    9.9949268450990001E+00   -1.1507715495310000E+01 \
             3.0958394565589998E+02
         &THERMOSTAT_ENERGY
               4.9474041670689449E-04
              -2.8197910080412147E-03
              -1.1411041513317319E-03
              -1.0265425609150627E-03
              -7.6134568913646429E-03
               7.3719338164871754E-03
               7.8661627542926226E-04
              -3.5637470185540905E-03
               2.3554481726601470E-03
               5.3984269195864586E-03
               7.0249655515451769E-03
              -1.7779719427555983E-03
              -5.2336361785353530E-03
              -5.5141672709172864E-03
               5.9998817108952501E-03
              -9.3196591376446987E-03
               6.5979257676287194E-03
              -4.3275477906643605E-03
               3.3950581149768560E-03
               1.0761314808544812E-03
               3.2690128179294867E-03
               1.5385321800599112E-03
              -2.7785332510648622E-03
               2.8231604891856142E-03
              -1.8830900981117833E-03
              -7.9950473127096133E-03
               4.9837302292102511E-03
               2.9749147822695295E-03
              -3.6743611187545744E-03
               8.6499718638274469E-04
              -6.3258982026599174E-03
               4.1586399183885341E-03
               1.3520935588860727E-02
               1.5055328732908890E-03
              -9.9091292374895567E-03
               1.0467407418923904E-02
              -1.4796384512433961E-03
               1.5494541771433094E-03
              -3.8397103319578237E-04
              -6.0101018353917197E-03
               3.2638335964825329E-03
               2.7418491303206289E-04
               4.3552788004418827E-03
               3.2985747983306467E-03
              -4.0461165328646012E-03
               3.6396831137615981E-03
              -4.9088894800808367E-03
               1.2167902385837901E-02
               3.2571172153663687E-04
              -9.7083170400124805E-03
               3.0127763633214875E-03
              -8.3908329537782794E-03
              -3.0429533174203844E-03
               9.8192636747654570E-03
              -4.9321251129173923E-03
              -1.7806350814233748E-03
               2.8517967945912645E-03
               1.1627247342145370E-03
               4.1471753648679652E-03
               1.5771315046934607E-03
              -4.2398242788513436E-03
               9.4129668386129322E-04
               1.1029994002852605E-02
              -3.1472412767088974E-03
              -4.1115955365823532E-03
              -1.2836689793757779E-04
              -8.2237706106460303E-03
               5.2890853223871818E-03
               9.7248498034648630E-03
              -8.7745803044175178E-04
              -3.2795769009631736E-04
               2.7151483969619639E-03
              -3.5251085401067118E-03
               6.3985292734375946E-03
               2.1255130800864898E-03
              -6.6195224356998556E-03
               4.6913202453720262E-03
               4.8253863924711182E-03
               1.2374292870823166E-02
              -7.5805407983413828E-03
              -7.2094759695770592E-03
              -1.1476811136951186E-03
               2.1302251795812794E-03
              -8.2293637920902456E-04
               2.3720449184792678E-04
               4.2728696331560045E-03
              -1.0516143779519883E-03
               9.3353037325241998E-04
               4.1302274067202159E-03
              -2.5890920324657609E-03
               2.8347379854349215E-03
              -3.3425579382854388E-03
              -7.3775559410587397E-04
              -3.2874165929630420E-03
              -9.2606552554307716E-03
               4.6886313778247935E-03
               4.9264025323056959E-03
              -3.8732531399636354E-03
               5.7538921550377839E-03
               8.1423569736198311E-04
              -1.3907890505538581E-03
              -4.9510619211230854E-03
              -2.8435371206408707E-03
              -5.0742317713606405E-03
               5.1806217331909652E-03
               3.2845834455847564E-03
               7.7395161118844341E-03
              -5.2763321302070286E-04
               4.3210526593542090E-03
              -4.2600914896708496E-03
              -2.0162629001391407E-03
              -8.3478846689576114E-03
              -1.2517458187001106E-03
               1.0229397115308072E-02
               1.4492373084035075E-03
              -1.1493540076986052E-03
              -4.2412845778350009E-03
               3.1499699436864331E-03
              -6.6855774210783088E-04
              -7.1188508899904098E-04
              -6.0058392422525722E-04
               8.3617479177694829E-03
               1.8337202187729746E-03
               4.4331050542978211E-03
              -5.8768315775151224E-03
              -1.0763705220518702E-02
               1.3967074505832210E-03
               4.4837746595711211E-04
               2.8321784462594997E-03
              -4.9967765257564484E-03
               9.9933319145095300E-05
               3.8355577382598594E-03
              -1.8207860641971231E-03
               8.0190122112439536E-03
              -1.7438205059816555E-03
               7.0540485851763011E-04
               9.9424729978573061E-05
              -6.5673764091344457E-03
              -1.8928359035426754E-03
              -1.0318792669662560E-02
               4.5227674249053926E-03
               7.2556169856039790E-03
               1.2432341401743941E-02
              -1.1708522673636550E-02
              -2.2785871902396217E-03
              -2.2430977296957750E-03
               2.2047692858903367E-03
              -1.4870849298286263E-03
              -2.7228865478619313E-04
              -4.8639561284735608E-03
              -2.2457797793779821E-03
               1.1393404803744494E-03
              -1.4009547737538423E-03
              -2.1463474403283890E-03
              -3.6386582358360138E-04
               1.8661216395102686E-03
               3.1431259678440519E-03
              -7.4490954425471354E-05
              -6.1226071963699120E-03
               7.0982107335045598E-03
              -3.4791517870492537E-03
              -3.7148630580439677E-03
              -2.0852442236138531E-03
               2.7309023115233292E-03
               6.4442288585459355E-03
               8.2272532590061519E-03
               5.7765367819970614E-03
              -6.0430126037302597E-03
              -6.4169354112279184E-03
              -5.2181803858625626E-03
               1.6675315190983336E-03
              -3.5061985252003644E-03
               4.5879938156647721E-03
               1.8160252257229798E-03
              -4.8629070642195078E-03
              -9.3009019570196722E-03
               9.7472594233299209E-03
               1.5394302750769686E-03
              -5.3585787742932590E-03
               9.5108782663387917E-03
              -1.3781169651077513E-03
               2.4473015618515213E-04
               2.9093523392241848E-03
              -5.2082491076251370E-03
               1.5633957851469381E-03
              -4.8665043477768330E-04
               1.1740922281972673E-03
              -3.4354906468717452E-03
              -4.7162216105575624E-03
              -8.1034904213890503E-04
              -1.0224162744235641E-03
              -1.9822050330729462E-03
              -2.3078062654572386E-03
               4.1897208467317126E-03
               5.0580392015967856E-03
              -3.1402636219880591E-03
               1.7152090483169144E-03
               2.4851057547147507E-04
               4.1551849089585253E-04
              -1.0097916104789603E-03
               1.8804442648743924E-03
              -5.7369887858623944E-03
               2.8335882375705963E-04
               5.3430338965483539E-04
              -1.9849460010370472E-03
               2.5508367151823217E-03
               9.1894993053829026E-05
               4.5131076975417749E-03
               3.2832901423286340E-03
               3.0425363405176919E-03
              -1.4456975943863400E-03
              -3.4434461251245177E-03
               1.3853936402019556E-03
              -2.7490278943184446E-03
              -1.2813762004596939E-04
              -6.5364695288330364E-04
              -9.5380371503580067E-04
              -2.5753380835197045E-03
              -1.8286788091917885E-03
              -3.9888225778957750E-03
              -1.5076520157026950E-03
              -7.0613157953608834E-03
              -7.0756568545949023E-03
               5.3245717755525243E-03
              -8.9413733824574297E-04
              -3.8523822526290606E-03
               8.9797153041657060E-04
               1.7983226237113330E-03
              -4.1303896577249196E-03
               8.0349210313880343E-04
              -4.1736865277543700E-03
               4.7821594608757198E-03
               4.4314011532228734E-03
              -2.5288077906550268E-03
               3.2321143555056509E-03
              -1.9880546569683256E-03
              -3.9291973487678641E-03
              -2.1380103204401897E-03
               2.7525819754992218E-07
               5.2697625244976665E-03
               4.4688789670283644E-03
              -1.0877127394645796E-02
               1.1564789582842039E-02
               1.3949036133878447E-03
              -1.1232369438478624E-03
               1.4074289722099975E-03
              -4.7709965038165471E-03
              -1.5040543318276714E-03
               1.7052970155938467E-03
              -8.8920032965265927E-04
              -2.6841745630928470E-04
              -2.5821623719869609E-04
              -2.5942840544980017E-03
               2.7060949895553703E-05
               1.4672415509843593E-03
              -4.1346818175070034E-03
               1.4725894507907003E-02
              -5.4570403539380904E-03
               1.8952076349887119E-03
              -1.7584606872067966E-02
               1.4697653394196451E-02
               7.7528601214833218E-04
               4.4714934421254508E-03
               5.5763569697940031E-03
               1.1243193323440556E-02
              -4.1641764442913731E-03
               4.8235509031409964E-04
              -7.1631672096059244E-03
              -4.5547473030264638E-03
               2.2322131522720364E-03
              -2.7968549351001445E-03
              -5.3661059839246019E-03
               6.0736457419566158E-03
               5.3617535471816736E-03
               4.1735505858417838E-03
               2.8782277182177389E-04
              -1.1334781208026818E-02
               1.0010331863607624E-02
              -6.4049772796909267E-03
               4.1006845020964567E-03
              -1.4824414293842410E-03
               4.3608656469692119E-03
               3.5872833019820441E-03
              -6.5014321212906133E-04
              -2.0984042352296026E-03
              -4.2879207204284319E-03
               5.4058252800080007E-03
              -7.3388761602701169E-03
              -3.7259001568696205E-03
              -4.2631843419494069E-03
              -9.2719332195615551E-04
              -1.5444540571942964E-04
               3.2322749178109681E-03
              -7.6737894161203581E-03
              -1.9903695307079876E-03
               1.7816933954479775E-03
               3.3541658861120253E-04
              -9.3905626193756795E-04
              -8.6255924893994520E-04
              -3.8494886904565963E-03
               7.2579545632869196E-04
               5.5000187324924111E-03
               3.2566789029432127E-03
              -1.8919664638230081E-03
               4.3260690079866965E-03
              -8.4104058698019658E-03
              -6.4831884346725724E-04
              -3.1229727279046058E-03
               1.6493143835522427E-03
               1.3264381142959161E-02
               6.2611399138406672E-04
              -1.3671252480787497E-02
               3.6765549170391888E-03
               8.9993457462992834E-03
              -3.0514361384223268E-03
               2.9531425512283236E-03
              -3.5519221467360479E-04
               2.5459413291009864E-03
              -7.9329262161327715E-04
              -2.1992813558171852E-03
               1.5117064986734362E-02
              -5.5561772394076749E-03
              -3.7051074579362328E-03
               1.8980650006508880E-03
              -8.6444251316496418E-04
               2.8287757818686271E-03
               3.1684169274865072E-03
               1.3739452864455274E-03
              -4.8897798444220144E-03
              -6.8646112231518855E-03
               3.0612300187530181E-03
              -9.2479597825181007E-03
               4.8764824733052653E-03
              -3.8433004821114372E-03
               2.6018754624072687E-03
               5.9725426815202074E-04
               9.6705959275576944E-03
              -1.8156950276443252E-03
              -5.2491674311220954E-03
               2.9050867358855338E-03
              -2.4773492501335504E-03
              -1.7210410408135660E-03
               2.0751511656317777E-03
              -2.4511786126594348E-04
              -4.6411571133104373E-04
              -3.3346548288888667E-03
               2.8797707898570867E-03
              -3.9756672058390112E-03
              -4.1336317728166540E-03
               2.8676197771761733E-03
               1.6002901141475342E-03
               6.3645992935446221E-03
              -8.4716510824411357E-03
               3.9741600492248759E-04
              -5.0519778221495681E-03
               5.0880535781331650E-03
               3.4087422944333191E-03
              -5.1132110580817455E-03
               1.8164239684646582E-03
               7.7480531665898855E-03
              -7.3293978722041206E-04
               1.0627948667577868E-03
              -5.4160401417892726E-03
              -4.3431499535027977E-03
               1.2441025088833272E-05
               1.3613373572033604E-02
               1.1950296830827657E-03
               1.5184507611618737E-03
              -4.2016489001304811E-03
              -4.5521113827277178E-03
               2.6200465433260565E-03
               1.3420316818527841E-03
              -1.2896313156860941E-03
              -2.3632123096818123E-03
              -2.0852677553162254E-04
              -7.3750471973729175E-03
               2.4582495509470718E-03
               3.8491757706155512E-03
              -1.5710174933102230E-03
              -7.4217298351969443E-04
               1.8655366052229669E-03
               4.2599411391021601E-03
               1.3067288674361884E-02
              -5.2674252748838406E-03
              -2.1092289168850836E-02
               9.1061953961231647E-03
              -4.7946958204721033E-03
              -6.1933152530586890E-03
              -1.2149638950623403E-04
              -1.8982317992724401E-03
              -6.2460518366678651E-03
               6.5156444467628664E-03
               5.5711300983731452E-03
               6.7886890988989659E-03
              -3.4124061252861228E-03
               2.6241422087527498E-03
              -4.1676508584939168E-03
              -1.3274041293080832E-03
               4.8786164930335460E-03
              -1.2884036387441499E-02
               6.6605021443926406E-03
               2.3819835106794166E-03
              -8.6663480986726316E-03
               9.8187317934733710E-03
               6.9475090188294503E-03
               2.2536184933106768E-03
              -3.6707782596875628E-04
               7.8083063063055487E-03
              -8.0363956589559853E-03
               7.3552884745728804E-05
               2.6464995535913252E-03
               4.7419730600049767E-03
              -1.2291415829024448E-03
               2.9901351467956452E-03
              -9.1431143348560343E-03
               3.1503210159409059E-03
               3.9718034919748423E-03
              -8.0586031626810519E-03
              -4.4017481382456411E-03
               1.3156968077250386E-02
              -1.7258527588319902E-03
              -4.2702835966442285E-03
               1.0646551333964754E-02
               7.1239446153600911E-03
               6.8435139250397712E-03
               3.0913438686816187E-03
               9.2363086909349884E-03
               3.3400390678402832E-03
              -3.4354266954759031E-03
               8.0847776559771403E-03
              -1.0575585017574374E-03
               1.1118212554463098E-02
               6.2924754831797233E-03
               8.3255629658402167E-03
               7.4168419583536963E-03
               3.2644790275680835E-03
               8.4386199664009814E-04
              -2.4587230704897242E-03
              -2.8924580619208900E-03
              -2.5130625251912199E-03
               3.9220658596215204E-03
               6.7665198829674018E-03
               2.2654628085005514E-03
               1.6924439202396905E-03
              -1.2542575930491752E-03
               8.1906827525141616E-03
               4.6742176617393261E-03
               4.7118292996662699E-03
               1.9546188577350245E-03
              -1.1718589369857585E-02
              -4.4148065913841644E-04
              -6.5134054381685933E-03
               6.1148862873593767E-03
              -1.0526245242871437E-03
              -1.7300247768687283E-03
              -3.1188360559540156E-03
              -4.2246581910175256E-03
              -1.3600342774044505E-03
              -4.2468607960875161E-03
               1.5080845187572685E-03
               4.4109606904996317E-03
               4.5951634932978082E-03
               2.6519439162532351E-03
               4.2653321013541743E-03
               7.9472966516938495E-03
               1.7098461450250433E-03
              -1.8196488762122279E-03
              -6.4951838131055931E-03
               4.2109719907389006E-03
              -5.6243854285832028E-03
              -1.1052083007411099E-03
              -1.0531005093032955E-03
               1.4619188852328846E-03
              -3.1773672440956659E-03
               3.6337311362810315E-03
               3.6140943165023963E-03
               2.2215587236236001E-03
               4.0880565017161986E-03
              -2.3952508905601857E-03
               1.2309307408133092E-02
              -1.7255619716698718E-03
              -2.7229749395462177E-03
               2.6326407019500006E-03
               4.1805451584897655E-03
               2.1708857573967300E-03
              -6.9259656986684296E-03
               3.1963531001203923E-03
              -2.6772539746848403E-03
               3.4502801931857959E-03
              -3.4907262479630941E-03
               2.2004199935196592E-03
               5.7934667628519601E-03
               6.0349254962185949E-04
              -4.7964829252396783E-04
              -9.4583011679767685E-03
              -2.7886280353980777E-03
               1.1856867504401881E-02
               9.1650804176770032E-03
               3.2705726931595712E-03
               5.7062133719503029E-03
              -2.4291580232987187E-03
               4.6698308707861574E-03
              -1.2266080611562497E-02
               2.0286038696696974E-02
              -1.7045991088265433E-03
              -7.3118873259275284E-03
              -1.2653854814322642E-03
              -4.5305047591176717E-04
               5.0994890498493924E-03
               1.6149636323695051E-03
               1.0079917869624008E-03
              -2.0071806333795631E-04
              -5.9595944993989514E-03
              -4.9400046571477247E-03
               8.2598074009745531E-03
              -5.2408906176590947E-03
              -3.0904891459801439E-03
               1.9272485993545752E-03
               2.0818022162233268E-03
               4.7365384455196518E-03
              -4.1658771244590612E-03
              -1.8680604819575123E-03
               4.8833923067954470E-03
               4.8917821510588069E-03
              -1.9278411028372897E-03
               3.2989995682217027E-03
              -4.8797918864892471E-03
               1.0620511701126250E-03
               6.4114040752625183E-03
              -3.7753278559189132E-03
               3.3167897540462097E-03
               1.8421288181382194E-04
               5.5377847081851967E-03
               2.0172529689865093E-03
               5.6370276105107264E-03
               1.4208298058029035E-03
               5.0364943124530728E-03
              -6.3623667975985371E-03
               8.9985552187286976E-04
               1.0093372044479385E-02
              -6.5423822449701388E-05
               5.8417558088580423E-04
               4.8956955592902919E-04
               5.1948628264948896E-03
               6.3449121945534058E-03
              -2.8666838625019636E-03
              -5.7768431610743035E-04
               8.4698323646702264E-03
              -2.2572055982430107E-03
               3.8054149826505881E-03
              -5.9016112032805610E-03
              -5.5044586261759367E-04
              -1.1142395058996741E-03
               5.4382126457847122E-04
               1.7008026320059521E-03
               2.3662093654335946E-04
              -1.1577265116190973E-03
              -5.2635096565473065E-03
               1.3345374148142511E-02
               1.7701400149197437E-03
               1.1079699017827781E-02
               2.4701194478743450E-03
               8.2131706130464627E-04
               1.4994870602633389E-03
               3.3503436367598191E-04
               1.0549216991402447E-03
              -6.2004250256171151E-03
              -4.6384026246116764E-03
               5.8174556310734921E-03
               9.6030010222202151E-04
              -9.0028861536968976E-05
              -4.6095974198190103E-03
              -1.9687384783519755E-03
              -1.6560924359400313E-02
               4.1765952855104694E-03
               1.4472116178442123E-03
               8.2622180552827298E-03
               4.3811457436413320E-03
              -2.6795370598102367E-03
         &END THERMOSTAT_ENERGY
         &RNG_INIT
Wiener process for Thermostat # 1        1 F T T  -9.8236738167888460E-01         226733040.0        4248387519.0        1164353849.0        2758509449.0        3644127687.0        1764793484.0             12345.0             12345.0             12345.0             12345.0             12345.0             12345.0             12345.0             12345.0             12345.0             12345.0             12345.0             12345.0
Wiener process for Thermostat # 2        1 F T T  -1.4171306107827426E+00        1528154308.0        2775625301.0         197130159.0        1452211673.0        1835562137.0        1983376171.0        3692455944.0        1366884236.0        2968912127.0         335948734.0        4161675175.0         475798818.0        3692455944.0        1366884236.0        2968912127.0         335948734.0        4161675175.0         475798818.0
Wiener process for Thermostat # 3        1 F T T   8.6049543281786645E-01        2248570378.0        1724762616.0          52903713.0        3229622658.0        3199004837.0        4241126217.0        1015873554.0        1310354410.0        2249465273.0         994084013.0        2912484720.0        3876682925.0        1015873554.0        1310354410.0        2249465273.0         994084013.0        2912484720.0        3876682925.0
Wiener process for Thermostat # 4        1 F T T  -1.5460863137690717E+00         957380376.0         510326667.0        2247033635.0        2033071685.0        3054261466.0        3462352516.0        2338701263.0        1119171942.0        2570676563.0         317077452.0        3194180850.0         618832124.0        2338701263.0        1119171942.0        2570676563.0         317077452.0        3194180850.0         618832124.0
Wiener process for Thermostat # 5        1 F T T   1.5428690481661575E-01        4203301200.0         738999836.0        1485820986.0          20648636.0        2223680357.0        4294941489.0        1597262096.0        3906379055.0        3312112953.0        1016013135.0        4099474108.0         275305423.0        1597262096.0        3906379055.0        3312112953.0        1016013135.0        4099474108.0         275305423.0
Wiener process for Thermostat # 6        1 F T T   7.0411917217518150E-01        1265311014.0        3687607523.0        1792102642.0         142025920.0         459804801.0        1211121065.0          97147054.0        3131372450.0         829345164.0        3691032523.0        3006063034.0        4259826321.0          97147054.0        3131372450.0         829345164.0        3691032523.0        3006063034.0        4259826321.0
Wiener process for Thermostat # 7        1 F T T  -9.5744195640119531E-02        4040223344.0        4246262317.0         329086624.0          28777921.0        2946509694.0        1489700490.0         796079799.0        2105258207.0         955365076.0        2923159030.0        4116632677.0        3067683584.0         796079799.0        2105258207.0         955365076.0        2923159030.0        4116632677.0        3067683584.0
Wiener process for Thermostat # 8        1 F T T  -1.2413826789147817E-01         252045112.0        2848200345.0         154646410.0        1271924195.0        1873079261.0        3351978939.0        3281794178.0        2616230133.0        1457051261.0        2762791137.0        2480527362.0        2282316169.0        3281794178.0        2616230133.0        1457051261.0        2762791137.0        2480527362.0        2282316169.0
Wiener process for Thermostat # 9        1 F T T   1.0331244080464512E+00        3784506675.0        1914172684.0        3527875272.0        1610827989.0        3855196701.0        1117597481.0        3777646647.0        1837464056.0        4204654757.0         664239048.0        4190510072.0        2959195122.0        3777646647.0        1837464056.0        4204654757.0         664239048.0        4190510072.0        2959195122.0
Wiener process for Thermostat # 10       1 F T T   2.1466585360569199E-01        3057685686.0        2869029583.0         411221469.0        2821893460.0         322924656.0        1143227575.0        4215590817.0        3862461878.0        1087200967.0        1544910132.0         936383720.0        1611370123.0        4215590817.0        3862461878.0        1087200967.0        1544910132.0         936383720.0        1611370123.0
Wiener process for Thermostat # 11       1 F T T  -4.4132046785776799E-02        1554543736.0        2717576499.0        4135075403.0        2618383353.0         642871762.0         249586537.0        1683636369.0         362165168.0         814316280.0         869382050.0         980203903.0        2062101717.0        1683636369.0         362165168.0         814316280.0         869382050.0         980203903.0        2062101717.0
Wiener process for Thermostat # 12       1 F T T  -5.6161533877704317E-01        1770324141.0        3770017049.0         190859559.0         764828178.0        2918138424.0         736540625.0         272317999.0         166758548.0         310112982.0         201045826.0        1680231254.0         118290799.0         272317999.0         166758548.0         310112982.0         201045826.0        1680231254.0         118290799.0
Wiener process for Thermostat # 13       1 F T T   9.7554409384929153E-01        3627045108.0        1898589428.0        2752141753.0          85759421.0        2499273175.0        1137986601.0        2245755202.0        1652682525.0        2865544364.0         721509566.0         209733568.0         592362218.0        2245755202.0        1652682525.0        2865544364.0         721509566.0         209733568.0         592362218.0