 # Version information for this restart file 
 # current date 2023-12-13 21:19:21.409
 # current working dir /scratch/work/courses/CHEM-GA-2671-2023fa/students/sea438/comp-lab-class-2023/Week12/Runs/Proton
 # Program compiled at                              Sat Dec 12 18:27:15 EST 2020
 # Program compiled on                                         cs001.nyu.cluster
 # Program compiled for                                                nyu-intel
 # Source code revision number                                       git:8c64c6e
 &GLOBAL
   PRINT_LEVEL  LOW
   PROJECT_NAME proton_aimd_1ps_every0.5fs
   RUN_TYPE  MD
   WALLTIME 21600
 &END GLOBAL
 &MOTION
   &GEO_OPT
     OPTIMIZER  BFGS
     MAX_ITER  100
     MAX_DR     3.0000000000000001E-03
     &BFGS
     &END BFGS
   &END GEO_OPT
   &MD
     ENSEMBLE  NVT
     STEPS  2000
     TIMESTEP     4.9999999999999994E-01
     STEP_START_VAL  1997
     TIME_START_VAL     9.9849999999998249E+02
     ECONS_START_VAL    -1.1027761563273546E+03
     TEMPERATURE     3.0000000000000000E+02
     &THERMOSTAT
       TYPE  GLE
       REGION  MASSIVE
       &GLE
         NDIM  5
         A_SCALE     1.0000000000000000E+00
         A_LIST     1.8595758612559999E+02    2.7263853498399998E-01    1.1526100454610001E+01   -3.6414578262600003E+01 \
             2.3173375816020001E+02
         A_LIST    -2.7809524712060002E-01    8.5951591808710006E-05    7.2189048017650004E-01   -1.9844539343859999E-01 \
             4.2409257583420001E-01
         A_LIST    -1.4825808131210000E+01   -7.2189048017650004E-01    1.3590902121280000E+00    5.1498896280349999E+00 \
            -9.9949268450990001E+00
         A_LIST    -1.0372189126880000E+01    1.9844539343859999E-01   -5.1498896280349999E+00    2.6661910891169999E+01 \
             1.1507715495310000E+01
         A_LIST     2.1801346360420001E+02   -4.2409257583420001E-01    9.9949268450990001E+00   -1.1507715495310000E+01 \
             3.0958394565589998E+02
         &THERMOSTAT_ENERGY
               5.5328176162898705E-03
              -1.7109449587278923E-03
              -2.0173755176898286E-03
              -2.6859909154984722E-03
              -1.6458020231204532E-02
               7.6805555998667573E-03
              -2.1434327480727069E-03
               6.1292092825153644E-03
               7.6010624331612599E-03
              -7.2588030973591447E-04
               7.7879825047295634E-03
               4.3431681126865629E-03
              -4.8551400179444384E-03
              -6.7213696892005816E-03
               5.3598752405889533E-03
              -5.5095286715530958E-03
               2.9434230589071289E-03
              -3.3002460093517825E-03
               2.7093665557287373E-03
               1.3305231815049124E-03
              -1.1071470765824805E-03
               6.5778842176599387E-03
              -1.1417594394267250E-02
              -3.3464101540895252E-03
               1.3555733672946646E-03
              -4.0052197777661258E-03
               8.8041151861392303E-03
              -2.5138590825544700E-04
              -2.8653715264587085E-03
               5.8881046175685257E-03
               9.9047393848674010E-04
              -4.1920215488573396E-03
               1.4143520781274427E-02
              -1.0663404228126502E-03
              -1.4461085327705623E-02
               1.2092624006634991E-02
              -1.6045375624931151E-03
              -1.8317285761730142E-03
              -2.3148906916695372E-03
              -6.3354950526717142E-03
              -3.0099649133448463E-03
              -1.2540790230928466E-03
               3.5113013170872658E-03
               4.8376804734103183E-03
               7.4591234835208716E-03
               6.6636024855523434E-03
              -4.6368293724128491E-03
               1.3351585327268298E-02
               4.6719997301887680E-04
              -1.0810600622107884E-03
               4.9857098612164563E-03
              -1.4058279552133802E-02
              -3.7157267625210753E-03
               1.2940657391109556E-02
              -4.8733527170471682E-03
              -2.4631433932386249E-03
               8.4145525728269392E-05
              -4.4403215903500905E-03
               7.3420750993147092E-03
               6.4518538880067068E-03
              -4.6323458995582547E-03
              -4.1448349065977283E-03
               1.0598657545513868E-02
              -6.2100635875779594E-03
              -5.4882597020684246E-04
               1.6486585652330838E-03
              -1.0776684469926632E-02
               1.7673466133025801E-02
               6.9836333249273901E-03
              -1.1560674247584727E-02
              -6.3641478238031851E-03
               7.8141574070766349E-03
              -4.5950331122282485E-03
               6.5945112248500040E-03
               3.7028281135881161E-04
              -2.0783526310209723E-02
               9.4691139314111439E-03
               2.1033753315740138E-02
               1.1953714722679922E-02
              -8.2952247883836122E-03
              -9.5515975238836277E-03
              -5.9868181215059074E-03
              -5.9434544880891910E-04
              -1.5986119034832919E-03
              -3.2258773252223226E-04
               1.2628527482664315E-02
               3.3996993468729053E-04
               1.7048615384707062E-03
              -9.1075610794667393E-04
              -1.3561621452193205E-03
               5.2796134284960310E-03
              -8.5127801694576174E-03
              -3.6198418942873902E-03
               3.6019097316071117E-05
              -9.1598457570417971E-03
               4.7526647099768006E-03
               9.2529691294631379E-03
              -1.6274237717268099E-03
               4.8765826411650819E-03
               1.8616072163542862E-03
               1.1387820137221604E-03
              -5.0727696073411830E-03
              -2.5201134273827330E-03
              -1.9388812560467996E-03
              -5.8251934580934896E-03
               1.4970132702107732E-02
               9.9653183669629487E-03
              -8.3791427546376432E-03
               3.9617510097703350E-03
              -3.4982530429659648E-03
              -1.9364870623954224E-03
               9.2645469905193907E-03
              -3.1692420251009127E-03
              -9.8585133293139777E-04
               7.2378570174311697E-03
              -8.6902379731602052E-03
              -3.0319393516288744E-04
              -1.5617830610278421E-04
               2.1829505511090177E-03
               1.8888979496747434E-03
               4.4969611887055042E-03
               2.9030005288183639E-03
               9.3204256211121515E-03
              -1.7300811594436185E-03
              -1.1309250028764681E-02
              -8.4210929902651943E-03
               3.5693144910076595E-03
               8.2502791999987867E-04
               1.8244655373369069E-04
               5.2315869817478296E-03
               1.3653098836972793E-04
               5.7886646970571288E-03
              -1.3424282643324744E-03
              -4.8615974478662187E-04
               2.1087962118369625E-04
              -1.5649061764772786E-03
              -2.1681624403516947E-03
              -1.2090044011258603E-02
              -5.8654510803718603E-04
               1.4504394162473629E-03
              -1.0338825976195627E-02
               1.6043634974750750E-02
               1.7883888304364257E-02
              -1.3843712906680876E-02
              -5.9028421102043857E-03
              -1.8062631135484215E-03
              -3.0184262084617503E-03
               4.0208377964336588E-03
              -6.8434427857973117E-03
               5.1749625580147793E-03
              -1.6417373799940110E-02
               8.9651789648361006E-03
              -2.5554485057761008E-03
              -5.0535652698490531E-03
               2.7239082004701289E-03
               2.3365200468752172E-03
               6.4146400610509248E-03
               5.4277067964582345E-03
              -1.0524827114341327E-02
               6.8129301151400538E-03
              -3.8311972441435727E-03
              -1.0930893192763901E-02
              -2.2618212327575331E-03
               8.2988867781784836E-03
               1.0555779574690109E-02
               1.5168049628288414E-02
               3.5827736863982603E-03
              -2.1837200589375366E-02
              -2.3361709672693538E-03
              -6.0253082595537171E-03
               4.5438750997851751E-03
               1.3553656287252976E-03
               1.7964379168563874E-03
              -4.8254048720433500E-03
              -3.4230285477056780E-03
              -1.7138144972488365E-02
               1.2676719618367128E-02
              -1.0141986959808082E-03
              -8.8508175447571513E-03
               1.3560796580262416E-02
               1.6823565520877575E-03
               2.5856120399717067E-03
               3.9162034466396940E-03
              -1.8298618607552768E-02
               1.6701321384941178E-02
              -2.1265723901943033E-03
              -1.9029059387988697E-03
              -6.0510559023942328E-03
              -7.6433527037424384E-03
               1.9622969746100438E-03
              -1.6741892219703932E-03
              -9.1634992865701555E-04
              -1.7680516955564090E-03
               1.5141888126287074E-02
               1.2052083848305059E-03
              -1.0726031204709404E-02
              -4.1108985705784551E-03
               1.8639981824014236E-03
              -5.5739793055959433E-03
              -3.0813657271183785E-03
               8.3358181874415029E-04
              -5.5593987906503353E-03
               2.2182528848685482E-03
               4.9020963338120751E-03
              -7.7133904070744068E-04
              -2.9883920872698856E-03
              -9.3254236330009006E-04
               1.8558795267633751E-03
               2.4346614633186663E-03
              -3.4640276111036819E-04
               5.7330578607432733E-03
              -1.0910907141524392E-02
               3.0468092507551885E-03
               4.1570672672564422E-03
              -4.1792624351736221E-05
               6.8937344587542519E-03
              -9.0742792780032378E-03
               1.9278733683678424E-03
              -5.1546099409323278E-04
              -4.5826666434822250E-03
               7.3236643965430273E-03
              -1.3789650772427119E-02
              -2.6380229516474343E-03
               6.7830471501875537E-03
              -6.2296785850266120E-04
              -7.2817301929422229E-04
              -2.4187020738568499E-03
               3.7738127361728806E-03
              -4.3834347797623531E-03
              -8.0374060804057988E-03
              -2.4574582681719894E-03
               2.7222696691095701E-03
               1.1880769841090974E-02
              -3.2338859759545265E-03
               3.2195943941744549E-03
               2.8466047593174604E-03
              -6.5118979206462021E-04
              -8.4577192747261332E-03
               7.3503485097057885E-03
               1.1662062894811642E-02
               5.0883286733347096E-03
              -1.1227910306844660E-02
               4.8222268442721112E-03
              -4.2489660586641446E-03
               4.5091984272659915E-03
               2.5952128730908253E-03
              -1.3701980052888067E-03
               2.9014200708253920E-03
               1.8435145428320522E-03
              -2.0562065631265958E-03
              -5.2899061421861522E-04
              -8.1431820132868999E-03
              -4.1740104941911590E-03
              -2.4135419391347621E-03
               3.6199393259467466E-03
               1.7486536350816710E-03
               1.6224973180145527E-02
              -8.4896657644939651E-03
               7.1653453864981426E-03
              -2.4356760040135188E-02
               2.1736291010195367E-02
               5.2936242004198364E-03
               2.8285860782089182E-03
               4.4926063247070014E-03
               1.1482445211705760E-02
              -1.0756924318361526E-02
               4.5001479060882881E-03
              -4.6055808766002652E-03
              -2.9820288525884337E-03
               6.2602981298634239E-03
              -2.4490011295055418E-03
              -8.3490074164674875E-03
               4.3177793644412306E-03
               1.0175783080089169E-02
              -2.3023575543649256E-03
              -3.4189905295113523E-04
              -1.6529602385866378E-02
               1.8860808465110450E-02
              -7.4678611503326406E-03
               3.4780756135182043E-03
              -8.6008277361181943E-03
               4.7339978026798594E-03
              -3.1534286317870109E-03
              -1.1240522580290756E-02
              -2.8334354219589318E-03
               5.2236161724012698E-03
               1.3044229228747484E-03
              -6.4006109031532858E-03
              -9.8878689987849239E-03
              -9.0703912423550600E-04
               1.6913814962145023E-03
               1.5268603770734988E-03
               3.7904380772401636E-03
              -4.0003052068589189E-03
               9.3689361141942795E-04
               9.4271998879499070E-03
              -1.5471203692083109E-02
               1.7159362255413982E-03
              -1.4584733717948088E-03
              -4.3336341119329744E-03
              -5.2721994104855925E-03
               5.3680935842855741E-04
               9.0287789205763611E-03
              -4.4803753167908505E-03
               1.4197375062360391E-02
              -1.5590518115488387E-02
              -8.3316853381820172E-03
               7.5596567679699197E-04
              -2.6157456985303465E-04
               1.2367027228137701E-02
               1.8905910782476487E-03
              -1.3196694262755489E-02
              -1.9427162227798099E-03
               2.0522176270648333E-02
              -6.7866002993549300E-03
               5.1994233741947905E-03
               2.5232675515421926E-03
               1.5668438730751764E-03
              -7.9971100246785075E-03
              -1.6179802808312480E-03
               1.6923776151922507E-02
              -1.9511869490796314E-02
              -2.2501243522278160E-03
               1.7110444803616197E-03
              -3.1243833279856505E-03
               7.7567900493748744E-03
               1.3796292661305304E-03
               3.2188037387035240E-04
              -8.2430956306650226E-03
              -3.1963751548304679E-03
               1.1834377766381746E-03
              -6.9263977575619627E-03
               1.9170838741058363E-03
              -1.6520129402919960E-03
               5.9492078985664840E-03
              -2.0863132255606758E-03
               1.1764684864365247E-02
               1.3061188876841517E-03
              -8.3946040123890255E-03
               3.4293425331700382E-03
              -5.2166015843890332E-03
               2.6841786456798964E-03
               1.5623810126009013E-03
              -7.0647585191013539E-03
              -1.3780639025584192E-03
               5.1464184365851012E-03
              -4.3001595097504308E-04
              -3.1506463394344914E-03
              -1.4807644449410331E-03
               6.6488534456797853E-03
               6.3249933949835781E-03
               8.2814345862608739E-03
              -8.3160891807604730E-03
              -1.8500807592155125E-03
              -1.3830143558265492E-02
               4.8840841836099930E-03
               1.5823036088523353E-03
              -8.5072625121544263E-03
              -1.0155180074024665E-02
               1.4459030964018174E-02
              -1.4072511908404294E-03
              -1.8237872031585656E-03
              -1.1902290217034843E-02
              -2.0241642594163796E-03
              -2.0275894942239339E-04
               1.6027670484260986E-02
               8.4078811979899481E-03
               4.2707348947179083E-04
              -8.2943340981330976E-03
              -8.9095010221409577E-03
               1.1104143570639184E-02
              -3.6774343451924413E-03
               1.0822786555587929E-03
               3.3376174891088344E-03
               1.2300968032826680E-03
               2.7039765371818648E-04
              -7.0710196502171939E-03
              -5.4100776978313796E-03
              -1.8226599463699259E-03
               1.1185949775666360E-03
               3.1251804059982957E-03
               8.2242765999677152E-03
               1.6534670915345707E-02
              -1.5210523565996120E-02
              -2.5074371452610714E-02
               1.7636540566647870E-02
               3.9592915243938289E-04
              -2.8002521777749563E-03
               1.2911598249551635E-03
              -1.5055648873724069E-03
              -7.0336094526527206E-03
               1.9507286802642566E-02
              -1.3357484747901827E-03
               1.9339100145061810E-03
               1.6720357133316566E-03
               7.2810709983225363E-03
              -1.0446467794636994E-02
               9.0075176229448915E-03
               5.7566537841770102E-03
              -2.7686385004290562E-02
               1.5770482505136303E-02
               7.6531867672682483E-04
              -6.7690067956091664E-03
               3.2389797281182071E-03
               1.6605727712211842E-02
              -2.0403475068455149E-03
               5.3491360644813003E-04
               2.9682874995441270E-03
              -9.1695481692202242E-03
               7.9438367787146996E-03
              -5.1303308398761476E-03
               7.1320632379300681E-03
               1.4610128748985996E-03
               5.0698648692447269E-03
              -8.8509056125635269E-03
               4.4354035519586377E-03
              -1.4683172322550852E-03
              -8.8266195561184421E-03
               3.3352141831782447E-03
               4.3701968896529197E-03
               1.2321676220642711E-03
              -4.7615107941336851E-03
               7.3406322656787062E-03
               6.1559199709878623E-03
               1.0301121252275917E-02
               3.0112540948741976E-03
               6.3943820010965435E-03
               1.6543436718394339E-03
              -2.9169297339177976E-03
               9.6563559057776926E-03
               5.2578249012372896E-04
               1.3584527713806992E-02
               9.9411243115468716E-04
               9.9300928843028165E-03
               1.1740656857659596E-02
              -1.2800819610838106E-03
              -6.0632084426681112E-04
               1.6945126466568498E-03
              -7.6504540236499042E-03
              -1.7990009357712833E-02
               5.4224788769768779E-03
               7.1253345375550288E-03
              -4.7993976769631604E-03
               6.5557539528181153E-03
               2.1695992107435371E-03
               5.2690350329531082E-03
               1.5013809195280519E-03
               1.0054743098013160E-02
               4.0758732717023089E-03
              -9.7832360437140192E-03
              -2.9505915099627121E-03
              -9.0450166410095574E-03
               8.3051142578013590E-03
              -1.7514307872548425E-03
              -1.6007871829628924E-03
              -5.5582642815364680E-03
               1.5707564095546610E-03
              -1.7498550084998156E-02
              -4.7912856978560266E-03
               4.3504919886512448E-03
               1.5356919648946791E-02
               4.2418688562272230E-03
              -2.7204416420413954E-03
               8.9263300044631604E-03
               6.3981369417742415E-03
               1.3216051839462721E-03
              -8.1841572730071057E-03
               1.6549029379852771E-03
               1.1643300245454442E-02
              -1.5749688504912100E-02
              -3.7951811422917113E-03
              -4.2401283763851645E-03
               3.4343973811877503E-03
              -5.0464129873887620E-04
               4.1903517942358691E-03
               1.1461636813680447E-02
               3.8432054173342385E-03
               3.9899735185775229E-03
              -2.8155065211920485E-03
               6.8803112244503924E-03
              -7.7062408850892081E-04
              -4.9379441666211913E-03
               5.2982298828223046E-03
               1.5217129406635515E-03
              -1.4836252112145896E-03
              -4.7749899475425903E-04
              -2.7479593477592150E-03
               2.2549862703047773E-03
               9.8685105951604648E-03
              -3.1825771053942769E-03
               8.0783649206936335E-03
               9.9209679101095131E-03
               4.1504192252735305E-03
              -2.7566255277174257E-03
              -1.0716967677518488E-02
              -1.4249211678085356E-02
               1.2624263689591056E-02
               1.2198284002200143E-03
               1.6697821329482339E-03
               8.7246212629246839E-03
               7.3028800661011279E-04
               5.8101695798728880E-03
              -1.5477887912849516E-02
               1.6600681912117433E-02
               8.1997233811000741E-03
              -1.7794702070937113E-02
              -3.4068622723959817E-03
               1.5874977971557160E-03
               9.2721370766636994E-03
               2.6549781088583847E-03
              -6.0167336266946456E-03
               9.2417578273497666E-03
              -7.5055336310422670E-03
               8.5950485717110675E-04
               4.3266063477800177E-03
              -1.2324813382918756E-02
              -7.3862938327655323E-03
               2.9333921850806782E-03
              -5.4889571531091270E-04
               1.0731612913938484E-02
              -5.7471582054916788E-03
              -4.6084590448850936E-03
               5.8808747631754789E-03
               5.1152097858226065E-03
              -1.4036058022880934E-03
              -1.8885072937981108E-03
              -2.1308016369558092E-03
              -5.9774639280627987E-05
               1.0333712342684095E-02
               6.7807365108774782E-03
              -9.5236551689432628E-03
               7.1763567343579486E-03
               1.0776662376281816E-02
              -3.5376019279155439E-03
               4.7294128960952636E-03
               7.0206787983582691E-03
               4.4928075812760496E-03
              -4.4629633067607630E-03
               6.8908886290935832E-03
               4.1717693690856142E-03
              -3.7977426354899469E-03
               1.1863613877148455E-02
              -4.5217257131463049E-03
               6.5888955158744022E-03
               1.0890473574363383E-02
              -5.2021994334885613E-03
               5.6360977512320319E-03
               6.9181040934301451E-03
              -4.6907372647418339E-03
              -9.5013438318266598E-04
              -5.5012632096009652E-03
               3.3878560716853359E-03
              -1.4008751576630859E-03
              -3.6342883787305884E-03
               1.3196799126738304E-03
               1.6052440220856094E-03
               6.4903307191413618E-03
               2.3878719653034074E-04
               1.7571959298721924E-02
              -4.6480969507153272E-04
               7.1352649870092977E-03
               2.0648997863353968E-03
              -3.9616807418899340E-04
               8.8851075573722260E-04
              -2.0041186351716540E-03
               1.2750474427714628E-04
              -3.3822614141539946E-03
              -3.8182164255024104E-03
              -2.8447713866552589E-03
               1.4162613078662165E-02
              -3.0087634221746796E-03
              -2.4243372425969256E-03
              -2.4158840515649239E-03
              -2.0741187811012172E-02
               7.0930230560923525E-03
               1.5352856416552083E-02
               1.3925038953363118E-02
               1.3634734875427983E-03
              -3.9891096309716640E-03
         &END THERMOSTAT_ENERGY
         &RNG_INIT
Wiener process for Thermostat # 1        1 F T T   3.7280401166127353E-01        2396824340.0        1285798124.0        1970812289.0        4262378425.0        2500496477.0        3105761546.0             12345.0             12345.0             12345.0             12345.0             12345.0             12345.0             12345.0             12345.0             12345.0             12345.0             12345.0             12345.0
Wiener process for Thermostat # 2        1 F T T  -2.8031459711754392E-01        1517340215.0         764337745.0        1777988352.0        1272471177.0        3093987526.0        2495380513.0        3692455944.0        1366884236.0        2968912127.0         335948734.0        4161675175.0         475798818.0        3692455944.0        1366884236.0        2968912127.0         335948734.0        4161675175.0         475798818.0
Wiener process for Thermostat # 3        1 F T T   7.0414863813957229E-01        1874984675.0        3540139467.0        3102430019.0        1608426380.0         643336117.0        1230365417.0        1015873554.0        1310354410.0        2249465273.0         994084013.0        2912484720.0        3876682925.0        1015873554.0        1310354410.0        2249465273.0         994084013.0        2912484720.0        3876682925.0
Wiener process for Thermostat # 4        1 F T T   2.2606224243119818E-01        3416187057.0        1637601412.0         393440280.0        2948182120.0        3407482107.0        2343296956.0        2338701263.0        1119171942.0        2570676563.0         317077452.0        3194180850.0         618832124.0        2338701263.0        1119171942.0        2570676563.0         317077452.0        3194180850.0         618832124.0
Wiener process for Thermostat # 5        1 F T T  -1.0267294306732384E+00         315072143.0        4137263975.0        4196656129.0        1282237791.0        3639735469.0        1937530485.0        1597262096.0        3906379055.0        3312112953.0        1016013135.0        4099474108.0         275305423.0        1597262096.0        3906379055.0        3312112953.0        1016013135.0        4099474108.0         275305423.0
Wiener process for Thermostat # 6        1 F T T   9.2624835653208748E-01        3222219212.0        3105331301.0        2094058484.0        2511776071.0        3719186732.0        3505559269.0          97147054.0        3131372450.0         829345164.0        3691032523.0        3006063034.0        4259826321.0          97147054.0        3131372450.0         829345164.0        3691032523.0        3006063034.0        4259826321.0
Wiener process for Thermostat # 7        1 F T T  -4.6721006089689310E-01        2921304001.0        3534845789.0         764942181.0        2980414860.0        2807768180.0         274774080.0         796079799.0        2105258207.0         955365076.0        2923159030.0        4116632677.0        3067683584.0         796079799.0        2105258207.0         955365076.0        2923159030.0        4116632677.0        3067683584.0
Wiener process for Thermostat # 8        1 F T T   4.8809173354813140E-01        3327178806.0        3682317356.0        2663069382.0         319044460.0        3975670735.0         562702070.0        3281794178.0        2616230133.0        1457051261.0        2762791137.0        2480527362.0        2282316169.0        3281794178.0        2616230133.0        1457051261.0        2762791137.0        2480527362.0        2282316169.0
Wiener process for Thermostat # 9        1 F T T  -8.1805399140306756E-01         433221438.0         349071730.0        2033385903.0        2639944804.0        3988392127.0        3801627598.0        3777646647.0        1837464056.0        4204654757.0         664239048.0        4190510072.0        2959195122.0        3777646647.0        1837464056.0        4204654757.0         664239048.0        4190510072.0        2959195122.0
Wiener process for Thermostat # 10       1 F T T  -2.7062828385550008E-01        2290601073.0        1666814614.0        3289919364.0        2930088785.0        1500929831.0        1860303943.0        4215590817.0        3862461878.0        1087200967.0        1544910132.0         936383720.0        1611370123.0        4215590817.0        3862461878.0        1087200967.0        1544910132.0         936383720.0        1611370123.0
Wiener process for Thermostat # 11       1 F T T   6.8652417552969780E-01        2151060734.0         580174056.0        1748210725.0         399674445.0        1879492130.0        2741776977.0        1683636369.0         362165168.0         814316280.0         869382050.0         980203903.0        2062101717.0        1683636369.0         362165168.0         814316280.0         869382050.0         980203903.0        2062101717.0
Wiener process for Thermostat # 12       1 F T T   1.2985463821691814E+00        3478492904.0        1830493925.0          17364685.0        2058676739.0        2676153401.0        4087350495.0         272317999.0         166758548.0         310112982.0         201045826.0        1680231254.0         118290799.0         272317999.0         166758548.0         310112982.0         201045826.0        1680231254.0         118290799.0
Wiener process for Thermostat # 13       1 F T T   2.0061703114922356E+00        2097018817.0        1300727704.0         367347443.0         582130443.0        2824054692.0        3111690587.0        2245755202.0        1652682525.0        2865544364.0         721509566.0         209733568.0         592362218.0        2245755202.0        1652682525.0        2865544364.0         721509566.0         209733568.0         592362218.0