 # Version information for this restart file 
 # current date 2023-12-13 21:19:47.563
 # current working dir /scratch/work/courses/CHEM-GA-2671-2023fa/students/sea438/comp-lab-class-2023/Week12/Runs/Proton
 # Program compiled at                              Sat Dec 12 18:27:15 EST 2020
 # Program compiled on                                         cs001.nyu.cluster
 # Program compiled for                                                nyu-intel
 # Source code revision number                                       git:8c64c6e
 &GLOBAL
   PRINT_LEVEL  LOW
   PROJECT_NAME proton_aimd_1ps_every0.5fs
   RUN_TYPE  MD
   WALLTIME 21600
 &END GLOBAL
 &MOTION
   &GEO_OPT
     OPTIMIZER  BFGS
     MAX_ITER  100
     MAX_DR     3.0000000000000001E-03
     &BFGS
     &END BFGS
   &END GEO_OPT
   &MD
     ENSEMBLE  NVT
     STEPS  2000
     TIMESTEP     4.9999999999999994E-01
     STEP_START_VAL  2000
     TIME_START_VAL     9.9999999999998226E+02
     ECONS_START_VAL    -1.1027761563273546E+03
     TEMPERATURE     3.0000000000000000E+02
     &THERMOSTAT
       TYPE  GLE
       REGION  MASSIVE
       &GLE
         NDIM  5
         A_SCALE     1.0000000000000000E+00
         A_LIST     1.8595758612559999E+02    2.7263853498399998E-01    1.1526100454610001E+01   -3.6414578262600003E+01 \
             2.3173375816020001E+02
         A_LIST    -2.7809524712060002E-01    8.5951591808710006E-05    7.2189048017650004E-01   -1.9844539343859999E-01 \
             4.2409257583420001E-01
         A_LIST    -1.4825808131210000E+01   -7.2189048017650004E-01    1.3590902121280000E+00    5.1498896280349999E+00 \
            -9.9949268450990001E+00
         A_LIST    -1.0372189126880000E+01    1.9844539343859999E-01   -5.1498896280349999E+00    2.6661910891169999E+01 \
             1.1507715495310000E+01
         A_LIST     2.1801346360420001E+02   -4.2409257583420001E-01    9.9949268450990001E+00   -1.1507715495310000E+01 \
             3.0958394565589998E+02
         &THERMOSTAT_ENERGY
               5.0162773254571373E-03
              -1.5523173692893110E-03
              -1.9544663937048857E-03
              -1.4239146618066430E-03
              -1.6196047034837083E-02
               7.7354099945965947E-03
              -1.7723108837926034E-03
               6.1960078062855105E-03
               7.6616028678760289E-03
              -4.5875405758737749E-04
               7.7691039786843101E-03
               4.4397243290233259E-03
              -5.6903760129181037E-03
              -7.1863250451560563E-03
               5.0009153918138148E-03
              -5.3754857555574883E-03
               2.3370455247843443E-03
              -1.7534518868785169E-03
               2.2791117126980524E-03
               1.1994424873365387E-03
              -9.9161558248912177E-04
               6.3857204080995898E-03
              -1.0965868438185703E-02
              -3.5213389027397503E-03
               1.2032415565826921E-03
              -5.3934445455736633E-03
               8.8136450114714195E-03
              -7.9222330874513980E-05
              -4.0351006597108881E-03
               5.8963726312617109E-03
               9.0666286144709836E-04
              -4.1108322328516876E-03
               1.4312636041438946E-02
              -4.0489687660261864E-04
              -1.3875641639252371E-02
               1.1597429833112391E-02
              -1.5624133895077101E-03
              -1.8319554959695444E-03
              -2.3545079389095912E-03
              -6.3698469960608165E-03
              -3.0243449616931400E-03
              -1.7714076183562863E-03
               2.3218504228423005E-03
               5.0085521912643085E-03
               7.3734201972788412E-03
               6.5479310948107754E-03
              -4.6603067322020433E-03
               1.3344438538748832E-02
               7.9416960751022903E-04
               3.3485300858812845E-04
               6.0170993155275283E-03
              -1.3882577011200884E-02
              -3.6607025521385225E-03
               1.3033210632913904E-02
              -4.4854381691667141E-03
              -2.5532135754422793E-03
              -5.0177621540243222E-04
              -4.5836219509042386E-03
               6.9380991500173402E-03
               6.3339345634591425E-03
              -5.3350207990537895E-03
              -3.9357708681875643E-03
               1.0789110142685998E-02
              -6.2159386859601011E-03
              -8.8439719652635734E-04
              -5.3204554398891910E-04
              -1.0977235903576087E-02
               1.8802309873075577E-02
               7.1116803309163651E-03
              -1.1548491593440917E-02
              -6.5455175940097544E-03
               8.0017873451964407E-03
              -4.5574694961069070E-03
               7.5854044015273379E-03
               1.9700964516310723E-04
              -2.0419667928795897E-02
               9.5390276067028636E-03
               2.0415714980885780E-02
               1.2053163874616650E-02
              -7.8952498756861868E-03
              -1.0528386659998321E-02
              -6.1171761679850748E-03
              -4.7217416153661244E-04
              -1.4485449398317441E-03
               1.1564682386493646E-04
               1.3345007905135845E-02
               8.5104652068987983E-04
               1.9319495592654292E-03
               1.0017425034789765E-04
              -1.0148604802042089E-03
               4.7118982966898870E-03
              -8.7812145135677724E-03
              -3.8016212675632327E-03
              -1.7914500598062503E-04
              -8.8377154701480692E-03
               4.5057124617885720E-03
               1.0058832846979482E-02
              -2.1302874926592439E-03
               4.7593549470744245E-03
               2.1154000752641984E-03
               1.5079676941871188E-03
              -4.9526485072483402E-03
              -2.4694549910612949E-03
              -1.3563327923273663E-03
              -5.4795278884946551E-03
               1.4957039342486829E-02
               9.8388844947322959E-03
              -8.2056500565671816E-03
               3.9081848234680952E-03
              -3.6656857632705901E-03
              -1.0053268600747531E-03
               8.6813460389999052E-03
              -2.7936184487962722E-03
              -1.0070136723365070E-03
               6.8585711514404010E-03
              -8.7140814875359112E-03
              -5.0275000120720160E-04
               1.6960017130261625E-04
               2.3285602902213712E-03
               1.6973565263937980E-03
               4.6828148845256528E-03
               2.8999805402813031E-03
               9.2326960463218460E-03
              -1.8053919869792682E-03
              -1.1758755836648333E-02
              -8.7207207985155171E-03
               4.3687711454565422E-03
               6.5080085227448839E-04
              -1.2095731553962577E-04
               5.4057189183207297E-03
               1.3865143704072370E-04
               5.5912381704220256E-03
              -1.5620287723389754E-03
              -1.4701153607651586E-03
              -6.9789475859284751E-04
              -6.5206301372537114E-04
              -1.0196347013135942E-03
              -1.1836339167537629E-02
              -3.6400489172907667E-04
               1.9742803421664325E-03
              -1.0970847872978473E-02
               1.5646544809549180E-02
               1.6423724750375436E-02
              -1.3448128759874639E-02
              -6.0273206713314046E-03
              -1.5948364204788502E-03
              -2.8493472076149707E-03
               3.8082545236810114E-03
              -6.7821915400243602E-03
               5.5286316230069915E-03
              -1.6435288687348396E-02
               9.2729326198774352E-03
              -1.8387232492192633E-03
              -5.1881990736300145E-03
               2.6964567207588171E-03
               3.0934630941983170E-03
               7.3550136469943328E-03
               6.5868366704006408E-03
              -1.0218917121740631E-02
               6.2772507851399451E-03
              -4.0845287854286020E-03
              -1.0767499620446238E-02
              -2.3314320582310095E-03
               8.4284041556380897E-03
               9.3478895130246036E-03
               1.5391575633134843E-02
               3.8693441068308903E-03
              -2.0903017540322966E-02
              -2.6643626981224435E-03
              -6.1473250578661220E-03
               5.6440412109214138E-03
               1.4807873046622326E-03
               1.3455537474364419E-03
              -4.7662949179812829E-03
              -3.1988920854571995E-03
              -1.7175884119745830E-02
               1.2657061996882895E-02
              -5.9803973889007334E-04
              -9.1930743937341623E-03
               1.4013010020004548E-02
               1.4555046135409924E-03
               2.6002878516001677E-03
               4.0460733170694721E-03
              -1.6941155975955129E-02
               1.6663115888911936E-02
              -9.0164973471592506E-04
              -2.2971514272448596E-03
              -6.0787851673123486E-03
              -7.4948370587303850E-03
               2.0323387488158091E-03
              -7.3450723218043516E-04
              -3.1754836145739761E-04
              -1.0799715850792657E-03
               1.4911325832445388E-02
               9.3848804391123805E-04
              -1.0670923815926501E-02
              -2.9913699890634533E-03
               6.8572180864981294E-04
              -5.5139212227019174E-03
              -3.0474943433268513E-03
               4.8644429989181168E-04
              -5.7965421881203179E-03
               1.7492482479847745E-03
               5.0234706717593915E-03
              -1.3144678862311542E-04
              -3.1282851091612683E-03
              -2.9968285800563958E-04
               1.7789251702501872E-03
               2.3308735392189319E-03
              -1.8539006605657423E-04
               5.9982522133506131E-03
              -1.0881346710871643E-02
               2.7759422702531840E-03
               4.3475493662625828E-03
              -3.0898920630564351E-05
               5.9720466251361173E-03
              -9.2374299742166606E-03
               1.9876258907778051E-03
              -3.9390100210577481E-04
              -4.4218091744290004E-03
               7.7422308630619944E-03
              -1.3148098327852955E-02
              -3.0082450790466474E-03
               6.9183692274337686E-03
              -5.8608380307488897E-04
              -7.0993497039088858E-04
              -2.2565003168385370E-03
               3.7595787100673378E-03
              -3.8553632102069847E-03
              -7.9834401911025067E-03
              -2.2069734149046507E-03
               2.6483263324761134E-03
               1.2833779347704145E-02
              -3.7380902350791141E-03
               4.1923561966777439E-03
               3.2422211134259002E-03
              -1.5672495908056991E-05
              -8.3557653485438251E-03
               7.2980735036437408E-03
               1.1502606130908895E-02
               4.9629695729034081E-03
              -1.1446231184296527E-02
               4.8047009974189281E-03
              -3.5076490865616019E-03
               4.5645186666464950E-03
               2.6765887611430936E-03
              -1.6974775342626324E-03
               3.6514170350819227E-03
               1.8412210710104556E-03
              -2.0686268996591033E-03
              -6.8308084428180091E-04
              -8.5187751844711928E-03
              -3.8378123220315884E-03
              -2.4590453801350701E-03
               3.9923129191241696E-03
               1.9316299253217860E-03
               1.6237391907194473E-02
              -8.5169524501554818E-03
               6.9349473050812887E-03
              -2.4850180897766409E-02
               2.1489087797638754E-02
               5.1025131691041581E-03
               2.3272125208952605E-03
               3.8764167145395960E-03
               1.1042572604538718E-02
              -9.9731990583225277E-03
               5.2907298802967132E-03
              -4.8358024590725319E-03
              -3.2802050432229287E-03
               6.2558201375568084E-03
              -2.5726959293826653E-03
              -8.1363022444197880E-03
               3.5683352940023465E-03
               1.0260648930236716E-02
              -1.7953431665038702E-03
              -3.3746089936205752E-04
              -1.6684369922524388E-02
               1.9833826254978260E-02
              -7.6839509423339532E-03
               3.7743724877322801E-03
              -8.0300638350724301E-03
               6.0765552912243346E-03
              -3.0324335774191335E-03
              -8.4860814983036027E-03
              -2.4432610186401636E-03
               5.4935422133097862E-03
              -1.9730248948791507E-03
              -6.3992955133034910E-03
              -9.7980174125420535E-03
              -1.5984791882767585E-04
               1.9288575009313567E-03
               1.5057962158044442E-03
               3.8046688247298883E-03
              -3.2397916997838742E-03
               6.8350345184136263E-04
               9.0385833307644273E-03
              -1.5944288128759036E-02
               1.2950531370459375E-03
              -6.1922701052958802E-04
              -4.3571595945994506E-03
              -5.1064389983400864E-03
               4.4915945688978195E-04
               9.0738147550237652E-03
              -4.4220407385289207E-03
               1.4389298997399486E-02
              -1.5642875302028961E-02
              -6.8834245064904121E-03
               5.7478639488162348E-04
              -2.2115400885483970E-04
               1.3449636350098207E-02
               1.8039684266408988E-03
              -1.2926688759495347E-02
              -2.3733287126166212E-03
               2.0377713270926197E-02
              -6.4530216749982159E-03
               6.3420928723053015E-03
               2.9080446556899522E-03
               1.4964345330340360E-03
              -8.2086163289493176E-03
              -1.6293593931403947E-03
               1.7046509263194894E-02
              -2.0169439023010990E-02
              -2.3797889295949603E-03
               1.5514578776683369E-03
              -4.2324448239664256E-03
               5.9389177616453216E-03
               1.1427971891703735E-03
               4.2996562561024073E-04
              -7.7664174787025145E-03
              -2.9742667297658365E-03
               4.7648467116418337E-03
              -7.0609291659703612E-03
               1.5626986119942619E-03
              -1.6330224123752557E-03
               6.1612253492023010E-03
              -2.7417596502153372E-03
               1.2816923218083484E-02
               9.3186695197595743E-04
              -8.3178113206937472E-03
               3.1333826538892072E-03
              -5.9013792085587978E-03
               2.7172903971950726E-03
               1.3967947078540165E-03
              -7.4536004616043566E-03
              -1.4874387376468835E-03
               5.1097924460454403E-03
               3.4355329044197236E-05
              -3.1620863659756432E-03
              -1.8166645274054097E-03
               6.5090088292970322E-03
               6.0733683059214418E-03
               8.1644187819336928E-03
              -9.2660960942422110E-03
              -1.8393438253554403E-03
              -1.3916879993385822E-02
               5.6109847933167025E-03
               1.9816504276756863E-03
              -8.4222946527023595E-03
              -1.0554999307766301E-02
               1.4617472607928330E-02
              -1.1657592113251841E-03
              -2.5340901385819087E-04
              -1.1242890976818312E-02
              -1.9309961663361434E-03
              -2.2114290713373813E-04
               1.5696534044769901E-02
               8.4574218725804989E-03
               4.8065823714646102E-04
              -8.4645387897326878E-03
              -8.9923485922306003E-03
               1.1090952759210756E-02
              -3.9511307428078193E-03
               1.1012992710729497E-03
               3.0247424017319003E-03
               1.0164489915774374E-03
               1.5371075516404601E-03
              -7.0261949785016290E-03
              -5.4577549685782146E-03
              -1.2137127046980231E-03
               1.1215958209906350E-03
               3.7284904373723446E-03
               7.6118950923376293E-03
               1.6307070352423989E-02
              -1.4314333730961592E-02
              -2.5357730788070989E-02
               1.7652051453281522E-02
               3.4166047588417926E-04
              -2.7007919654806665E-03
               9.7522050160379491E-04
              -1.1807257950897398E-03
              -7.6252059744120792E-03
               1.9011359362254867E-02
              -1.6242163543871049E-03
               2.0892883973778515E-03
               1.5294851679363997E-03
               6.8550681460299422E-03
              -9.6448239465611301E-03
               9.1865762057636510E-03
               7.6142787756338344E-03
              -2.8147371279876560E-02
               1.5110297982667194E-02
               1.0967057282962728E-03
              -7.2013722278833287E-03
               3.1557564583666754E-03
               1.7328761637349029E-02
              -1.7930650290373833E-03
               8.2243629501143321E-04
               3.5704897908385874E-03
              -9.2774595630873147E-03
               8.0304024021452744E-03
              -5.2409674038858874E-03
               7.3657604738859503E-03
               1.6732175089437893E-03
               5.1137547745907907E-03
              -8.7637936072368517E-03
               4.5310822464889869E-03
              -1.4234654342778572E-03
              -8.6752015233900869E-03
               3.3698251201037402E-03
               4.3030772950580064E-03
               1.2390912230773308E-03
              -5.0910845218968982E-03
               7.5915715982963891E-03
               6.2166085696281634E-03
               1.0313924141117908E-02
               2.9050085496013490E-03
               6.2188162253547525E-03
               1.1440559396685207E-03
              -5.1438694487397664E-03
               9.8283564599502306E-03
               9.8670547553821606E-04
               1.3610145351932916E-02
               7.9548895193668357E-04
               9.6245940091674916E-03
               1.1281623189768775E-02
               6.0382680264470592E-04
              -5.2109878202282302E-04
               1.9972950189997216E-04
              -7.6123608053044068E-03
              -1.5023259448871716E-02
               5.0093367540415528E-03
               6.5407213787173728E-03
              -5.6269657503321665E-03
               5.1401299301313550E-03
               2.2368146572032664E-03
               4.9413742727578190E-03
               2.1480770402852222E-03
               9.8534671815263680E-03
               3.6634747508629828E-03
              -9.7824942664159840E-03
              -3.3427592364607345E-03
              -9.1035841738539812E-03
               8.3453543383351890E-03
              -1.2350626655972809E-03
              -2.1821924038976787E-03
              -5.5420271520283185E-03
               1.6007674037923204E-03
              -1.6923351349004460E-02
              -4.8246931327197316E-03
               4.3192067851267960E-03
               1.5849415852261337E-02
               3.9785910025312010E-03
              -2.1812007098486680E-03
               1.0062110150807402E-02
               6.2621157238925843E-03
               1.5701279637141234E-03
              -8.2276548943812523E-03
               1.7020179125342486E-03
               1.1519167956756693E-02
              -1.5707793842994547E-02
              -3.2866439484268745E-03
              -4.1167541551243242E-03
               3.1209370989676451E-03
              -1.2796162785323377E-03
               4.5862135491748788E-03
               1.2799573241481827E-02
               3.9180209420008102E-03
               3.5736888887722773E-03
              -2.3510535137187313E-03
               7.5476841316131082E-03
              -1.4644316894961166E-04
              -3.9737536836125147E-03
               3.5184653008641011E-03
               1.7913498867019055E-03
              -3.2834423912824944E-03
               4.3399825312254213E-04
              -2.6671306646892296E-03
               2.5606653879940164E-03
               1.0333827711303064E-02
              -2.9016776374665080E-03
               8.2238631341443064E-03
               1.0427824957346430E-02
               3.8154175043909290E-03
              -2.5558516019414785E-03
              -1.0522183757378905E-02
              -1.3900065316827257E-02
               1.3844455662544610E-02
               1.7503871322845505E-03
               1.7892385191970845E-03
               8.6694479584025555E-03
               3.0341104812837373E-03
               5.7913083796371665E-03
              -1.5409726050380984E-02
               1.6633209377229875E-02
               8.3259089851318423E-03
              -1.7034143061714645E-02
              -3.4761734595858554E-03
               1.5124187453491457E-03
               9.1318293374770092E-03
               2.6780833985104004E-03
              -5.7355923280425969E-03
               8.8383779127229715E-03
              -7.4397818577638074E-03
               9.1698722356128978E-04
               4.3411656920192042E-03
              -1.2644966863761944E-02
              -7.4403811403059485E-03
               2.5183905644122909E-03
              -1.4247255454734233E-03
               1.0984046698579710E-02
              -5.6998922819810347E-03
              -3.8151916498768540E-03
               5.7641263092005025E-03
               5.1113670186485041E-03
              -7.9827465238117650E-04
              -1.9427430423253774E-03
              -1.9498310305639712E-03
              -3.2900919035210464E-04
               1.1036717120397140E-02
               7.7165917536877199E-03
              -9.1848066369596987E-03
               7.2516018910881476E-03
               1.1001866143532961E-02
              -3.0288738775005679E-03
               5.2986274705262709E-03
               7.1054171307643795E-03
               4.4765028253671525E-03
              -4.8625597837409652E-03
               6.7909705662692332E-03
               3.1466884831705157E-03
              -3.7282855820912095E-03
               1.1994729398902421E-02
              -4.8271226072642897E-03
               7.2983964346136441E-03
               1.1063373135206563E-02
              -5.1987205136801934E-03
               5.1942553844779166E-03
               6.7359297889671467E-03
              -4.7832510269818556E-03
              -1.1450398271831061E-03
              -5.9662910411450061E-03
               2.7135785443514610E-03
              -1.4342364624953892E-03
              -3.4835888433798826E-03
               1.1227213571591769E-03
               1.8930229363595418E-03
               6.6207571239286448E-03
              -3.2380666711507764E-05
               1.8176978650234023E-02
              -5.8415629081625569E-04
               7.3918578328788700E-03
               1.9818196383236141E-03
              -5.5150277538403188E-04
               8.2212739655266470E-04
              -3.6364452138219600E-03
              -9.4058629535402226E-04
              -3.8670200766089480E-03
              -4.0602977856670384E-03
              -3.0220693151309899E-03
               1.3337991594242194E-02
              -2.3020416867634858E-03
              -2.5381514608229460E-03
              -1.3704111694333651E-03
              -2.0674250851175049E-02
               6.7642584154471571E-03
               1.5017682656423736E-02
               1.3516240190305858E-02
               1.2055294042390935E-03
              -4.1693805399423411E-03
         &END THERMOSTAT_ENERGY
         &RNG_INIT
Wiener process for Thermostat # 1        1 F T T  -4.3866331554119464E-01        3463026290.0         996283881.0        3077134961.0        1575188103.0         352198642.0        1255594993.0             12345.0             12345.0             12345.0             12345.0             12345.0             12345.0             12345.0             12345.0             12345.0             12345.0             12345.0             12345.0
Wiener process for Thermostat # 2        1 F T T   6.1664168869435698E-01         581397078.0        3867423482.0         327967633.0        1486938113.0          26429212.0        4093174459.0        3692455944.0        1366884236.0        2968912127.0         335948734.0        4161675175.0         475798818.0        3692455944.0        1366884236.0        2968912127.0         335948734.0        4161675175.0         475798818.0
Wiener process for Thermostat # 3        1 F T T   2.0518696979926636E+00        1062843694.0        3278483557.0        2630284801.0         342499437.0         508306288.0         570022504.0        1015873554.0        1310354410.0        2249465273.0         994084013.0        2912484720.0        3876682925.0        1015873554.0        1310354410.0        2249465273.0         994084013.0        2912484720.0        3876682925.0
Wiener process for Thermostat # 4        1 F T T   8.6483655468840070E-01         858988242.0         878260951.0        1341305949.0        1687735708.0        1261279903.0        1615458589.0        2338701263.0        1119171942.0        2570676563.0         317077452.0        3194180850.0         618832124.0        2338701263.0        1119171942.0        2570676563.0         317077452.0        3194180850.0         618832124.0
Wiener process for Thermostat # 5        1 F T T  -7.2623034709222295E-02        3503246388.0        3640749438.0          80160185.0        4050541932.0        1809135917.0         826251710.0        1597262096.0        3906379055.0        3312112953.0        1016013135.0        4099474108.0         275305423.0        1597262096.0        3906379055.0        3312112953.0        1016013135.0        4099474108.0         275305423.0
Wiener process for Thermostat # 6        1 F T T   2.6094790259997280E+00        1648662560.0         298744963.0         276080774.0        3452610735.0        2129471280.0        4132861437.0          97147054.0        3131372450.0         829345164.0        3691032523.0        3006063034.0        4259826321.0          97147054.0        3131372450.0         829345164.0        3691032523.0        3006063034.0        4259826321.0
Wiener process for Thermostat # 7        1 F T T   1.3118545096244869E+00        4025695046.0        1027992126.0        3217973651.0        2155997853.0        1780084567.0        1907814450.0         796079799.0        2105258207.0         955365076.0        2923159030.0        4116632677.0        3067683584.0         796079799.0        2105258207.0         955365076.0        2923159030.0        4116632677.0        3067683584.0
Wiener process for Thermostat # 8        1 F T T   7.1524753302764935E-02        2631328646.0          66904958.0        3191287979.0        3452779318.0        2048731614.0        3759050068.0        3281794178.0        2616230133.0        1457051261.0        2762791137.0        2480527362.0        2282316169.0        3281794178.0        2616230133.0        1457051261.0        2762791137.0        2480527362.0        2282316169.0
Wiener process for Thermostat # 9        1 F T T  -1.0980465140389938E-01        1977246253.0        1903248984.0        3508262652.0        2466127224.0         300284070.0         767034957.0        3777646647.0        1837464056.0        4204654757.0         664239048.0        4190510072.0        2959195122.0        3777646647.0        1837464056.0        4204654757.0         664239048.0        4190510072.0        2959195122.0
Wiener process for Thermostat # 10       1 F T T   1.9081094228418396E+00         405211316.0        3215252316.0        3029076279.0        3899943421.0         886526099.0         586515832.0        4215590817.0        3862461878.0        1087200967.0        1544910132.0         936383720.0        1611370123.0        4215590817.0        3862461878.0        1087200967.0        1544910132.0         936383720.0        1611370123.0
Wiener process for Thermostat # 11       1 F T T  -5.3344054384789541E-01        3450000619.0        1059116059.0        3916567347.0         635813254.0        3901690603.0        3696418470.0        1683636369.0         362165168.0         814316280.0         869382050.0         980203903.0        2062101717.0        1683636369.0         362165168.0         814316280.0         869382050.0         980203903.0        2062101717.0
Wiener process for Thermostat # 12       1 F T T   8.9448207812820613E-01        1696219248.0        1783691089.0        1685873716.0        1285524479.0        2726140602.0        4269630803.0         272317999.0         166758548.0         310112982.0         201045826.0        1680231254.0         118290799.0         272317999.0         166758548.0         310112982.0         201045826.0        1680231254.0         118290799.0
Wiener process for Thermostat # 13       1 F T T  -1.0297203341400047E+00        4019568919.0        3484227797.0         947541978.0        4224885921.0        2127446270.0         502669027.0        2245755202.0        1652682525.0        2865544364.0         721509566.0         209733568.0         592362218.0        2245755202.0        1652682525.0        2865544364.0         721509566.0         209733568.0         592362218.0