 # Version information for this restart file 
 # current date 2023-12-13 21:19:29.073
 # current working dir /scratch/work/courses/CHEM-GA-2671-2023fa/students/sea438/comp-lab-class-2023/Week12/Runs/Proton
 # Program compiled at                              Sat Dec 12 18:27:15 EST 2020
 # Program compiled on                                         cs001.nyu.cluster
 # Program compiled for                                                nyu-intel
 # Source code revision number                                       git:8c64c6e
 &GLOBAL
   PRINT_LEVEL  LOW
   PROJECT_NAME proton_aimd_1ps_every0.5fs
   RUN_TYPE  MD
   WALLTIME 21600
 &END GLOBAL
 &MOTION
   &GEO_OPT
     OPTIMIZER  BFGS
     MAX_ITER  100
     MAX_DR     3.0000000000000001E-03
     &BFGS
     &END BFGS
   &END GEO_OPT
   &MD
     ENSEMBLE  NVT
     STEPS  2000
     TIMESTEP     4.9999999999999994E-01
     STEP_START_VAL  1998
     TIME_START_VAL     9.9899999999998238E+02
     ECONS_START_VAL    -1.1027761563273546E+03
     TEMPERATURE     3.0000000000000000E+02
     &THERMOSTAT
       TYPE  GLE
       REGION  MASSIVE
       &GLE
         NDIM  5
         A_SCALE     1.0000000000000000E+00
         A_LIST     1.8595758612559999E+02    2.7263853498399998E-01    1.1526100454610001E+01   -3.6414578262600003E+01 \
             2.3173375816020001E+02
         A_LIST    -2.7809524712060002E-01    8.5951591808710006E-05    7.2189048017650004E-01   -1.9844539343859999E-01 \
             4.2409257583420001E-01
         A_LIST    -1.4825808131210000E+01   -7.2189048017650004E-01    1.3590902121280000E+00    5.1498896280349999E+00 \
            -9.9949268450990001E+00
         A_LIST    -1.0372189126880000E+01    1.9844539343859999E-01   -5.1498896280349999E+00    2.6661910891169999E+01 \
             1.1507715495310000E+01
         A_LIST     2.1801346360420001E+02   -4.2409257583420001E-01    9.9949268450990001E+00   -1.1507715495310000E+01 \
             3.0958394565589998E+02
         &THERMOSTAT_ENERGY
               5.5676861425380834E-03
              -1.4538786623817339E-03
              -1.5114007467409360E-03
              -2.4300446944169577E-03
              -1.5997227773486042E-02
               7.6456439164685431E-03
              -1.9550486588989194E-03
               6.2323583197550735E-03
               7.8397221427577660E-03
              -5.5603161884111249E-04
               7.8222302821259991E-03
               4.4193478638388239E-03
              -5.7546340186720706E-03
              -6.9300448298945652E-03
               5.3717499427085478E-03
              -5.3718058980026569E-03
               2.2974778883503950E-03
              -2.3353638802260678E-03
               2.6688561267554120E-03
               1.3456728138853266E-03
              -9.7351549471038398E-04
               6.2623026762720409E-03
              -1.2067982009136705E-02
              -3.0100810829436215E-03
               1.4190784931718975E-03
              -3.9914072372592537E-03
               8.7965163176619964E-03
              -2.8194881513988513E-04
              -3.9499965270937722E-03
               5.9011927361478263E-03
               1.1542868020906921E-03
              -4.6132578518985057E-03
               1.4223667842130456E-02
              -1.1276164358403171E-03
              -1.4321612441265782E-02
               1.2025781980077465E-02
              -1.5585327225617414E-03
              -1.7429580756186389E-03
              -2.5167690067083677E-03
              -6.3998655496131521E-03
              -3.0254854373066684E-03
              -1.2789354485401227E-03
               2.4921426138183227E-03
               4.9810621163779035E-03
               7.4478754696514476E-03
               6.6541257985693967E-03
              -4.6130494027277038E-03
               1.2597499952232919E-02
               5.5546773057169767E-04
               2.6122650497831311E-04
               4.7831779170495513E-03
              -1.3827015437208028E-02
              -3.8893789800591144E-03
               1.2949949432036173E-02
              -4.5527829210417654E-03
              -2.8580509221822984E-03
               3.3370829917738349E-04
              -4.4977328641723656E-03
               6.8392271103490422E-03
               6.4845168187750504E-03
              -4.7550933374610983E-03
              -3.9349788914012805E-03
               1.0774181501244928E-02
              -6.0963981387262452E-03
              -6.5583668907123565E-04
               1.6979114217236580E-03
              -1.0688804691878162E-02
               1.8242606214060014E-02
               6.7353342217389058E-03
              -1.1682251550518186E-02
              -6.4300022059912924E-03
               7.9015137872574803E-03
              -4.5024500012894614E-03
               7.3542046634924906E-03
               1.0405353366759894E-04
              -2.0896139652298005E-02
               9.9123528628680038E-03
               2.0986747142145896E-02
               1.1870955115155200E-02
              -8.1232339626408478E-03
              -9.7334379921325230E-03
              -6.3525358142114607E-03
              -5.1532229704254976E-04
              -1.5183872660445145E-03
              -3.6166709637091361E-04
               1.2177986780740752E-02
               7.2176010595421296E-04
               2.4093482735894783E-03
              -7.1546639634296615E-04
              -1.2983916896461382E-03
               4.9479833550907055E-03
              -8.5245542865188782E-03
              -3.6136565750608828E-03
               9.6497579782061399E-05
              -8.9618270648529775E-03
               4.4611426687386655E-03
               9.9505923530548625E-03
              -2.1507496448459032E-03
               4.9400252961916370E-03
               1.8255507911839877E-03
               9.2672955322487688E-04
              -4.8593248283708597E-03
              -2.9095468913268112E-03
              -1.1867598470477196E-03
              -5.7794044342970073E-03
               1.4914054507589066E-02
               9.7208665352063617E-03
              -8.6546723017183521E-03
               3.9741050607101170E-03
              -3.4795186435066273E-03
              -1.7502325185268597E-03
               8.6857228408715285E-03
              -2.7222705277121224E-03
              -1.0041597943728669E-03
               7.1448442509464971E-03
              -8.5671172874389190E-03
              -2.1678959022847037E-04
               1.0148385951375339E-04
               2.2730270186345674E-03
               1.5448667825984869E-03
               4.5827748167885183E-03
               2.6926966172621538E-03
               9.3756682238452481E-03
              -1.9181825438751067E-03
              -1.1320111011674608E-02
              -8.5501357537283006E-03
               3.2673576954199909E-03
               7.5637647376863458E-04
               3.1877948967569430E-04
               5.2344236337531023E-03
              -6.5278138864008069E-05
               5.4660110437269854E-03
              -1.3314472683318020E-03
              -4.5268915690661410E-04
               7.6884748491057807E-05
              -8.9808529975844188E-04
              -1.5470555708038160E-03
              -1.1860155965101184E-02
              -7.0078934894127491E-04
               1.3743722254173126E-03
              -1.0464348854269263E-02
               1.6244909830123666E-02
               1.6477206027062180E-02
              -1.3668564286683504E-02
              -6.0581033795671984E-03
              -1.9146837840778167E-03
              -2.8659674160975905E-03
               4.0829233892701305E-03
              -6.8260440258786845E-03
               5.2082076489147599E-03
              -1.6269364789726314E-02
               9.1161455294913128E-03
              -1.7634788410621060E-03
              -4.8583899336169115E-03
               2.7159561158865732E-03
               2.3931303646416613E-03
               7.0008146105655384E-03
               6.1164744686263940E-03
              -1.0612952390901407E-02
               6.7801815343730585E-03
              -4.5249475711320918E-03
              -1.0816185495728915E-02
              -2.5855447112417781E-03
               8.4236459538085309E-03
               9.8377999339103669E-03
               1.5419564935188888E-02
               3.7059718216355545E-03
              -2.1908766030949711E-02
              -2.5753336572107064E-03
              -6.0644225398579134E-03
               4.8163113605961781E-03
               1.4059272868973847E-03
               1.7614220453194933E-03
              -4.8977753137084646E-03
              -2.7174238894825883E-03
              -1.7117162352376036E-02
               1.2588628672636985E-02
              -7.0387354344140206E-04
              -8.7503014921685180E-03
               1.3945090357022901E-02
               1.8238552506726073E-03
               2.6184742904834316E-03
               4.0581810051565151E-03
              -1.7405380096662287E-02
               1.6708881675691352E-02
              -1.6667463953130221E-03
              -1.9513863337263038E-03
              -6.5264650205041760E-03
              -7.4386283382871701E-03
               2.0303174680871196E-03
              -9.6715064713685144E-04
              -1.5859084890924508E-03
              -1.2093812564538504E-03
               1.5218422793513809E-02
               1.1028702505118475E-03
              -1.0674805910340954E-02
              -4.0781490234696694E-03
               2.5147462934889528E-05
              -5.5168865732091116E-03
              -3.1131144195461475E-03
               8.4036041963206907E-04
              -5.7404317589473041E-03
               2.0815134583360142E-03
               4.9576888515036818E-03
              -3.9164235990286564E-04
              -3.3241929028779067E-03
              -5.6250871645981148E-04
               1.7929377627843505E-03
               2.3303907965285813E-03
              -3.0777642578696922E-04
               5.7444133955281947E-03
              -1.0910360142216434E-02
               3.1102966551364583E-03
               4.3219624079172021E-03
              -1.0308635590548166E-05
               6.6453100218449310E-03
              -9.0809295563179862E-03
               2.0061471688042278E-03
              -3.6972482609909862E-04
              -4.5479826440660192E-03
               7.6484080316830700E-03
              -1.4007979555553636E-02
              -2.5465890828016368E-03
               6.8683636477394113E-03
              -5.4632681200444825E-04
              -7.0748399608685467E-04
              -2.3024377761387579E-03
               3.8435356262651000E-03
              -4.1199489387828267E-03
              -8.2801611121945413E-03
              -2.2636775496272360E-03
               2.3720199459186537E-03
               1.2599520794724772E-02
              -3.0683039890827329E-03
               3.5824468533281811E-03
               2.5424398411288715E-03
              -2.2884717325253597E-04
              -8.2281056780605672E-03
               7.3955774835728870E-03
               1.1825425339586925E-02
               5.0564419676894954E-03
              -1.1144737999138106E-02
               4.8084775993279105E-03
              -4.0561592808080202E-03
               4.6971703017229024E-03
               2.9654396366560498E-03
              -1.9375521032628216E-03
               3.3380959373407633E-03
               1.7692234822292412E-03
              -1.8753791106444707E-03
              -4.4384327427025427E-04
              -8.5467726496464783E-03
              -4.7763723333117247E-03
              -2.6868475804729150E-03
               3.9008453390776254E-03
               1.8769572703297825E-03
               1.6218383207299451E-02
              -8.6489932821423466E-03
               6.8429271265586381E-03
              -2.4369429013740455E-02
               2.2017109702032318E-02
               5.0531683017663153E-03
               2.7913722333763563E-03
               4.5138066316263922E-03
               1.1271735778502800E-02
              -1.0091053347554578E-02
               4.2362824766228463E-03
              -4.9130338098422521E-03
              -2.9977934893701064E-03
               6.2315916254347976E-03
              -2.8033695957389733E-03
              -8.0956125447142896E-03
               3.3212391510190030E-03
               1.0248026108628539E-02
              -1.8824323923980696E-03
              -3.8906941089211430E-04
              -1.6535744452430622E-02
               1.8552156927641401E-02
              -7.8481096143680502E-03
               3.6298808083536239E-03
              -8.4082004371111314E-03
               5.6426666777004801E-03
              -2.8285194903918832E-03
              -1.1700209510718337E-02
              -2.9682198195426761E-03
               5.3091574371402495E-03
               6.7289400586700117E-04
              -6.3900045682575707E-03
              -9.9129135491765087E-03
              -7.6704211412449003E-04
               1.9467570222393604E-03
               1.3156022205212926E-03
               3.6871666653002628E-03
              -3.8221599579435070E-03
               9.4516805175942924E-04
               9.1491891926583843E-03
              -1.6071735636250393E-02
               1.6345265020192457E-03
              -1.1194971144930018E-03
              -4.3228522920763842E-03
              -5.7277632629584218E-03
               4.0951629829231279E-04
               9.0409592534479027E-03
              -4.4428475837528115E-03
               1.4319996163147157E-02
              -1.5549255391086652E-02
              -7.1218543774726317E-03
               5.5307570309146232E-04
              -2.0508696705339601E-04
               1.1296797700524937E-02
               1.8714237137555270E-03
              -1.2983334024491876E-02
              -1.8407863110283505E-03
               2.0538941382410025E-02
              -6.4082623049608340E-03
               5.5461917985048046E-03
               3.4333049531326950E-03
               1.5011125530011160E-03
              -7.9432183469139387E-03
              -1.6552371229483873E-03
               1.7003692435562892E-02
              -1.9981419156547605E-02
              -2.2982454167548138E-03
               1.4780494254483011E-03
              -4.8066490320210885E-03
               6.1597375452061322E-03
               1.1856240094706206E-03
               4.2350123666508511E-04
              -8.3409811318549479E-03
              -3.0316807529566408E-03
               2.7199361111628077E-03
              -6.8381292020400601E-03
               1.8401797728014890E-03
              -1.8391824828905580E-03
               6.0363398397115797E-03
              -2.0839632127335255E-03
               1.2667672819138534E-02
               1.6889727073702435E-03
              -8.3901294226692621E-03
               3.3425104959459045E-03
              -5.2924743747100236E-03
               2.7311530105071833E-03
               1.5641574398934991E-03
              -7.0893834970354357E-03
              -1.4164350486779961E-03
               5.0119188033684037E-03
               4.8366565439528090E-07
              -3.1459610914654000E-03
              -1.4742718683017253E-03
               6.1605857395483441E-03
               6.4346305784497267E-03
               8.1705518343180850E-03
              -8.1040841385754733E-03
              -1.9028166576262422E-03
              -1.3905014701878620E-02
               4.4739261365342314E-03
               1.5432498632959738E-03
              -8.5337335251845104E-03
              -9.9129324744271618E-03
               1.4356266857660239E-02
              -1.4491200048966067E-03
              -4.2906074342666278E-04
              -1.2012741901447709E-02
              -2.4101578755826975E-03
              -2.3447792070157837E-04
               1.5833679097203769E-02
               8.4929134319229396E-03
               2.8177417342681635E-04
              -8.2282374347271547E-03
              -8.8526544343026300E-03
               1.1128187106981130E-02
              -3.7283432120557339E-03
               1.0258108734005397E-03
               2.8922958926480974E-03
               6.7413532985479904E-04
               1.5253389833583769E-03
              -7.6251083207695787E-03
              -5.3599793899678045E-03
              -1.3597087619416340E-03
               1.1300135274302156E-03
               3.8760781719425846E-03
               7.9887902602346281E-03
               1.6433229364727645E-02
              -1.5245501684747170E-02
              -2.5504493215388488E-02
               1.7590101719832756E-02
               3.7740604506520466E-04
              -2.7629560816467974E-03
               1.3230115866463129E-03
              -1.4562245864635308E-03
              -7.8165183351067459E-03
               1.8708850034223963E-02
              -1.2705973979330971E-03
               1.9616274584321023E-03
               1.7356064501377678E-03
               7.1365852314570948E-03
              -9.9222143507552690E-03
               9.2003523364837629E-03
               6.6020454126931591E-03
              -2.7329874623985881E-02
               1.5672293346116663E-02
               9.6948807831484995E-04
              -7.0362695852796194E-03
               3.2093316261815139E-03
               1.6844244375459536E-02
              -2.0817879190590683E-03
               3.3927420052381964E-04
               2.3846687591427811E-03
              -9.1055825614104087E-03
               8.0586329911859784E-03
              -5.1175844025627901E-03
               7.1182753841533917E-03
               8.5258156592799537E-04
               5.2911016401626281E-03
              -8.6938955003634365E-03
               4.5896638510590469E-03
              -1.4240696907496177E-03
              -8.8673494148398466E-03
               3.8951591228158135E-03
               4.3727718790314571E-03
               1.0243043052220362E-03
              -5.0593066625480802E-03
               7.6737626687645617E-03
               6.2880520107911359E-03
               1.0274846138463054E-02
               3.0641689465347871E-03
               6.3266138455323724E-03
               1.5188756866512053E-03
              -3.6248961907702146E-03
               9.8130368364461699E-03
               1.1110502812186605E-03
               1.3645872412219325E-02
               4.0481701841307491E-04
               9.9059577141283710E-03
               1.1648319994744891E-02
               1.1082037170778909E-04
              -7.6744027213099811E-05
               1.1871150446675564E-03
              -7.6101422614229756E-03
              -1.6085177469554957E-02
               5.3339354689417584E-03
               6.6207935626795581E-03
              -4.8350160839712034E-03
               5.8864710596508250E-03
               2.2231578088672647E-03
               5.5867356197338907E-03
               1.9722242655895012E-03
               1.0083617668923317E-02
               3.6663521511687532E-03
              -9.7654935031187429E-03
              -3.5676967941913303E-03
              -9.0426629302735404E-03
               8.1334819697985346E-03
              -1.1924413285377816E-03
              -1.5276920005592551E-03
              -5.5528468826932945E-03
               1.5449490897786636E-03
              -1.7927945693498069E-02
              -4.7209818636547727E-03
               4.2583546485736043E-03
               1.5874605083658084E-02
               4.0418070465336004E-03
              -2.3206354925170724E-03
               8.6695520768238117E-03
               6.3029329493243203E-03
               1.5894617386482024E-03
              -8.2550324972747065E-03
               1.8433720710614580E-03
               1.1575982420744734E-02
              -1.5750621637872071E-02
              -3.4923201399954620E-03
              -4.0345999994312468E-03
               1.9336463207196564E-03
              -5.8540969090251159E-04
               4.3334893475744504E-03
               1.2441150336477740E-02
               3.6858559288618651E-03
               4.2747790951442174E-03
              -2.3630097287912896E-03
               7.2542738978191145E-03
              -5.5481188187599389E-04
              -3.9816021941281362E-03
               4.0893702214788840E-03
               1.3364308037631697E-03
              -2.0252789313668649E-03
              -1.2862424706196998E-04
              -2.8761600581870134E-03
               2.4744401618083120E-03
               1.0150062657913250E-02
              -2.9975528200525321E-03
               8.2539051009124717E-03
               1.0738690254452276E-02
               4.2626129076977779E-03
              -2.6212735524720385E-03
              -1.1002968815694392E-02
              -1.4275778939713898E-02
               1.3437602842254951E-02
               1.4309233032200261E-03
               1.7439578373182796E-03
               8.6760687623656345E-03
               2.4156079559876833E-03
               5.6850526941850856E-03
              -1.5623283817646549E-02
               1.6634969772141343E-02
               8.2859701464695467E-03
              -1.7705295624708847E-02
              -3.4024537542197437E-03
               1.5837878577819771E-03
               9.1091242870368263E-03
               2.8384479487097453E-03
              -6.2488258352667268E-03
               8.8399648378444766E-03
              -7.7255058029323063E-03
               8.0425154719487629E-04
               4.3189270826051018E-03
              -1.2432444323615824E-02
              -7.3869543544176778E-03
               2.7905782274400309E-03
              -5.3806151068736278E-04
               1.0780120953074037E-02
              -5.8230770680077889E-03
              -5.0247827286431460E-03
               5.7879708046915590E-03
               5.0765442552262669E-03
              -2.5868991300641050E-03
              -1.7656754346911684E-03
              -1.7624434418733418E-03
              -5.6417539125636128E-04
               1.0987602970689184E-02
               6.5627216008011836E-03
              -9.8204797907386118E-03
               7.5418910917036206E-03
               1.0394785038859834E-02
              -2.9481207250041581E-03
               5.1455220012363882E-03
               7.1125910222366228E-03
               4.4714178237303783E-03
              -4.4047470354340651E-03
               6.8795672082908946E-03
               3.6319879877882936E-03
              -3.6826177420027167E-03
               1.1835522764450301E-02
              -4.5193835484098896E-03
               6.6067496932225135E-03
               1.1024315822229959E-02
              -5.2990674607812606E-03
               5.4545008264506242E-03
               6.2952120365819386E-03
              -4.6583224045406652E-03
              -8.3347625181706903E-04
              -5.4587288357682562E-03
               3.5796484641702738E-03
              -1.4991833868869752E-03
              -3.4712176717178215E-03
               1.3364582279840858E-03
               1.7369892084116876E-03
               6.4599382932623043E-03
               1.9726198094682844E-04
               1.7944365944008542E-02
              -4.5459857713821061E-04
               7.4970513442706539E-03
               1.9268293219433289E-03
              -3.7822194351115764E-04
               7.2089373971494480E-04
              -2.2737378812238674E-03
               2.1385725992561429E-04
              -3.2451607768542827E-03
              -3.8806012787999094E-03
              -2.8367307688401504E-03
               1.4012628933571299E-02
              -3.0302523429550903E-03
              -2.5382785021219579E-03
              -1.6330701027390019E-03
              -2.0674538633549989E-02
               6.8255953383421315E-03
               1.4727615846770285E-02
               1.3983319861957411E-02
               1.1655135376182784E-03
              -4.2120600251288219E-03
         &END THERMOSTAT_ENERGY
         &RNG_INIT
Wiener process for Thermostat # 1        1 F T T  -1.5601997779545997E+00        4027757407.0        1559045809.0        3403552754.0        1703120254.0         453778739.0        2861026355.0             12345.0             12345.0             12345.0             12345.0             12345.0             12345.0             12345.0             12345.0             12345.0             12345.0             12345.0             12345.0
Wiener process for Thermostat # 2        1 F T T  -4.0112764818655514E-02        3838101567.0        1430396723.0        1556923290.0        2889325561.0         607612135.0        3761282217.0        3692455944.0        1366884236.0        2968912127.0         335948734.0        4161675175.0         475798818.0        3692455944.0        1366884236.0        2968912127.0         335948734.0        4161675175.0         475798818.0
Wiener process for Thermostat # 3        1 F T T  -2.7485675335982579E-01         482699311.0        2506409672.0        1202736307.0        1073196783.0        1141297417.0        2856513754.0        1015873554.0        1310354410.0        2249465273.0         994084013.0        2912484720.0        3876682925.0        1015873554.0        1310354410.0        2249465273.0         994084013.0        2912484720.0        3876682925.0
Wiener process for Thermostat # 4        1 F T T  -9.8957058820594379E-01        3129827523.0        3549124345.0        1353678049.0        1344233659.0        2578763699.0        1106953444.0        2338701263.0        1119171942.0        2570676563.0         317077452.0        3194180850.0         618832124.0        2338701263.0        1119171942.0        2570676563.0         317077452.0        3194180850.0         618832124.0
Wiener process for Thermostat # 5        1 F T T   8.1743834600370391E-01         587879607.0         702838090.0         820286405.0        1159088393.0        1840431053.0        2379049004.0        1597262096.0        3906379055.0        3312112953.0        1016013135.0        4099474108.0         275305423.0        1597262096.0        3906379055.0        3312112953.0        1016013135.0        4099474108.0         275305423.0
Wiener process for Thermostat # 6        1 F T T  -4.6635220676026440E-01        1255338812.0        2941627828.0        2767710176.0        1701464963.0        2824905014.0        2257709657.0          97147054.0        3131372450.0         829345164.0        3691032523.0        3006063034.0        4259826321.0          97147054.0        3131372450.0         829345164.0        3691032523.0        3006063034.0        4259826321.0
Wiener process for Thermostat # 7        1 F T T  -2.7221417990508723E-01        2928923925.0        1475590831.0        3028549759.0        1729569924.0         123262326.0        1965188850.0         796079799.0        2105258207.0         955365076.0        2923159030.0        4116632677.0        3067683584.0         796079799.0        2105258207.0         955365076.0        2923159030.0        4116632677.0        3067683584.0
Wiener process for Thermostat # 8        1 F T T  -1.3371509559371584E+00        3293786404.0        2324351260.0        4224364702.0        1341956089.0         912321799.0        2697559406.0        3281794178.0        2616230133.0        1457051261.0        2762791137.0        2480527362.0        2282316169.0        3281794178.0        2616230133.0        1457051261.0        2762791137.0        2480527362.0        2282316169.0
Wiener process for Thermostat # 9        1 F T T  -8.7225140957356684E-01         657961678.0        1513147170.0        2219186603.0        4111646695.0         616753226.0        2747528653.0        3777646647.0        1837464056.0        4204654757.0         664239048.0        4190510072.0        2959195122.0        3777646647.0        1837464056.0        4204654757.0         664239048.0        4190510072.0        2959195122.0
Wiener process for Thermostat # 10       1 F T T  -6.2889449580622436E-01          96284293.0        2446379684.0        3801610533.0        2961863039.0        1877110468.0         129512113.0        4215590817.0        3862461878.0        1087200967.0        1544910132.0         936383720.0        1611370123.0        4215590817.0        3862461878.0        1087200967.0        1544910132.0         936383720.0        1611370123.0
Wiener process for Thermostat # 11       1 F T T   5.7191327297384098E-01         909895394.0        1862319182.0        2400367466.0        1201802882.0        2818881371.0          83822050.0        1683636369.0         362165168.0         814316280.0         869382050.0         980203903.0        2062101717.0        1683636369.0         362165168.0         814316280.0         869382050.0         980203903.0        2062101717.0
Wiener process for Thermostat # 12       1 F T T  -2.0098512161557830E-01        4281566709.0        2729512869.0         275332126.0         437149450.0        1041778670.0        1778805263.0         272317999.0         166758548.0         310112982.0         201045826.0        1680231254.0         118290799.0         272317999.0         166758548.0         310112982.0         201045826.0        1680231254.0         118290799.0
Wiener process for Thermostat # 13       1 F T T   9.4560796151122029E-01        3557498645.0        2583014714.0        2425630516.0         920535172.0        3770643442.0         978988578.0        2245755202.0        1652682525.0        2865544364.0         721509566.0         209733568.0         592362218.0        2245755202.0        1652682525.0        2865544364.0         721509566.0         209733568.0         592362218.0