 # Version information for this restart file 
 # current date 2023-12-13 21:19:36.654
 # current working dir /scratch/work/courses/CHEM-GA-2671-2023fa/students/sea438/comp-lab-class-2023/Week12/Runs/Proton
 # Program compiled at                              Sat Dec 12 18:27:15 EST 2020
 # Program compiled on                                         cs001.nyu.cluster
 # Program compiled for                                                nyu-intel
 # Source code revision number                                       git:8c64c6e
 &GLOBAL
   PRINT_LEVEL  LOW
   PROJECT_NAME proton_aimd_1ps_every0.5fs
   RUN_TYPE  MD
   WALLTIME 21600
 &END GLOBAL
 &MOTION
   &GEO_OPT
     OPTIMIZER  BFGS
     MAX_ITER  100
     MAX_DR     3.0000000000000001E-03
     &BFGS
     &END BFGS
   &END GEO_OPT
   &MD
     ENSEMBLE  NVT
     STEPS  2000
     TIMESTEP     4.9999999999999994E-01
     STEP_START_VAL  1999
     TIME_START_VAL     9.9949999999998238E+02
     ECONS_START_VAL    -1.1027761563273546E+03
     TEMPERATURE     3.0000000000000000E+02
     &THERMOSTAT
       TYPE  GLE
       REGION  MASSIVE
       &GLE
         NDIM  5
         A_SCALE     1.0000000000000000E+00
         A_LIST     1.8595758612559999E+02    2.7263853498399998E-01    1.1526100454610001E+01   -3.6414578262600003E+01 \
             2.3173375816020001E+02
         A_LIST    -2.7809524712060002E-01    8.5951591808710006E-05    7.2189048017650004E-01   -1.9844539343859999E-01 \
             4.2409257583420001E-01
         A_LIST    -1.4825808131210000E+01   -7.2189048017650004E-01    1.3590902121280000E+00    5.1498896280349999E+00 \
            -9.9949268450990001E+00
         A_LIST    -1.0372189126880000E+01    1.9844539343859999E-01   -5.1498896280349999E+00    2.6661910891169999E+01 \
             1.1507715495310000E+01
         A_LIST     2.1801346360420001E+02   -4.2409257583420001E-01    9.9949268450990001E+00   -1.1507715495310000E+01 \
             3.0958394565589998E+02
         &THERMOSTAT_ENERGY
               5.5163922242257857E-03
              -1.4171433579723003E-03
              -1.6678177659683645E-03
              -1.8738223094997967E-03
              -1.6125691173615831E-02
               7.7646963131741435E-03
              -1.8186050224340373E-03
               5.9996410115086092E-03
               7.7983861693389465E-03
              -4.6299400294029167E-04
               7.8334776391099595E-03
               4.4530236557753016E-03
              -6.0838414874809614E-03
              -6.6831850117695553E-03
               4.9961951424816577E-03
              -5.4452271512064939E-03
               2.5694691304575116E-03
              -1.8369868388151563E-03
               2.2037812167938881E-03
               1.2821390606636801E-03
              -8.2744724696419967E-04
               6.4081628846225222E-03
              -1.1877266015036404E-02
              -3.1025426927353637E-03
               1.2850753760044384E-03
              -4.9559941237602807E-03
               8.6809261263886862E-03
              -2.5864550660487659E-04
              -3.8086898533080601E-03
               5.8777503813850088E-03
               1.2679351604516038E-03
              -4.3939036772729255E-03
               1.4233885982498976E-02
              -4.5451575693385452E-04
              -1.4283912540705854E-02
               1.1070222157582299E-02
              -1.5721499342533404E-03
              -1.7363544044811375E-03
              -2.0948343162341503E-03
              -6.4494710945364074E-03
              -2.9411465222774556E-03
              -1.9292852902362788E-03
               1.7525046832469122E-03
               4.9681691914609215E-03
               7.5069609421217149E-03
               6.1764860296672228E-03
              -4.6162063005061316E-03
               1.2088429963697685E-02
               7.1977955665334130E-04
               4.7314718976177887E-04
               5.4487679675078579E-03
              -1.3931640699915834E-02
              -3.8126662845250365E-03
               1.2954560289330922E-02
              -4.4749511941870237E-03
              -2.3953389744773004E-03
              -5.6733606159115036E-05
              -4.6186582262925475E-03
               6.9688059394267324E-03
               6.3647850980077794E-03
              -5.2377666809169440E-03
              -3.9438773652176089E-03
               1.0856039048363599E-02
              -6.2751455201839456E-03
              -9.6737362349444368E-04
               1.0959929665986462E-03
              -1.0947813470330749E-02
               1.8453486641485082E-02
               7.0734622613184330E-03
              -1.1669706696907808E-02
              -6.3781647011964633E-03
               7.6358495735882430E-03
              -4.7525603570517140E-03
               7.5470787529834989E-03
              -1.3603798571160531E-05
              -2.0882262558359892E-02
               9.9601567230194581E-03
               2.0789058840375230E-02
               1.2122906538005488E-02
              -7.8700106527390679E-03
              -1.0217842633685303E-02
              -6.1318394152641486E-03
              -5.2592270105732847E-04
              -1.4044705427256044E-03
              -2.9003781361166484E-04
               1.2788985473397456E-02
               8.9460437390889063E-04
               2.2177791228128515E-03
              -6.4778445755457397E-04
              -1.5570887188223158E-03
               5.1268200739052723E-03
              -8.6301443746789920E-03
              -3.8755914008057426E-03
              -2.4755891132455455E-05
              -8.9862124795499938E-03
               4.6544721809389442E-03
               1.0055601951851669E-02
              -2.0744249075688066E-03
               4.8974185581642437E-03
               1.8694138695640986E-03
               9.0516271554179969E-04
              -4.8843343846244015E-03
              -2.5430400264808270E-03
              -8.9504849927890670E-04
              -5.3791035296045352E-03
               1.4914674692009468E-02
               9.8246715757882054E-03
              -8.3919977309073607E-03
               3.9719037533463156E-03
              -3.4945900002316941E-03
              -1.1697452414125907E-03
               8.5766961141225100E-03
              -2.7630177829349933E-03
              -1.1789094714584052E-03
               6.8838188482870403E-03
              -8.6470462910243177E-03
               3.2886430979703275E-04
              -4.2753378973939932E-06
               2.4085800895966092E-03
               1.6174711161739590E-03
               4.7255332223344057E-03
               2.6903623630778646E-03
               8.8734201666378892E-03
              -1.7283896025226998E-03
              -1.1476861571987747E-02
              -8.4936723611514046E-03
               3.4089540423406766E-03
               5.0778225152850259E-04
              -3.9711134980229793E-05
               5.1071348633388997E-03
              -1.1264014328462907E-04
               5.6247997444939654E-03
              -1.7150788957201884E-03
              -1.1188190546653196E-03
              -4.0111214881254542E-04
              -6.5466446118528051E-04
              -8.9253942270618161E-04
              -1.1826338327419762E-02
              -5.9749874405218837E-04
               1.8491288556229054E-03
              -1.0316002998500402E-02
               1.5263499036197850E-02
               1.6703940863379098E-02
              -1.3900732677207621E-02
              -6.1709118035240228E-03
              -2.7548310351846739E-03
              -3.0147677830793013E-03
               4.2087578269990704E-03
              -6.8046069496423417E-03
               5.4388368716821907E-03
              -1.6278651927277604E-02
               9.2158356360228354E-03
              -1.2209824735327549E-03
              -4.8615771933855174E-03
               2.6804882390832428E-03
               2.8532354084949887E-03
               8.2270132920627299E-03
               6.6642495748739389E-03
              -1.0376493102997602E-02
               6.6445262235317794E-03
              -4.6350759153799799E-03
              -1.0808117908557130E-02
              -2.5801139142558262E-03
               8.4229922006532672E-03
               1.1249560112263000E-02
               1.5851933456367279E-02
               3.8954024646413732E-03
              -2.2260915190495049E-02
              -2.5465079814496190E-03
              -5.9085571825317493E-03
               5.2013624745096531E-03
               1.5169256815948857E-03
               1.4065430705155783E-03
              -4.8171274658731699E-03
              -2.8427926550054512E-03
              -1.7117353466761093E-02
               1.2596856925626679E-02
              -6.1380953151210613E-04
              -9.0041606475526736E-03
               1.3961388312829795E-02
               1.7796885550540131E-03
               2.6739330100514105E-03
               3.8649884435813121E-03
              -1.6505040351464436E-02
               1.6606736130443476E-02
              -1.9689748166611368E-03
              -2.1498011660327659E-03
              -6.1660464838179836E-03
              -7.4551646292581866E-03
               2.0245408206110249E-03
              -9.6513380158082317E-04
              -6.9730663754437295E-04
              -1.2412381481996691E-03
               1.5210381181133603E-02
               1.0662743472945838E-03
              -1.0703942207234737E-02
              -3.3160442985907647E-03
               1.3263010568832420E-03
              -5.5817992394931485E-03
              -3.1433786069807726E-03
               7.8489585288475737E-04
              -5.3668367598766198E-03
               1.9920502546753333E-03
               4.8099895704340175E-03
              -1.2289077774293381E-04
              -3.2809594064986515E-03
              -6.6643896362143058E-04
               1.8125684479231099E-03
               2.1513746322106616E-03
              -1.9743762677071686E-04
               6.2008874799431239E-03
              -1.0852651203805883E-02
               3.1028095989944137E-03
               4.3581839754561957E-03
              -6.7283498593352951E-05
               6.5384765103599155E-03
              -9.1975661624937918E-03
               1.9991227372470237E-03
              -3.8809388623179406E-04
              -4.3737140830700291E-03
               7.6147205231642352E-03
              -1.3240863649303564E-02
              -2.6352537861448764E-03
               6.9209968411919533E-03
              -6.1853177694567085E-04
              -6.8876373300184022E-04
              -1.9965528993343648E-03
               3.7395565380203260E-03
              -4.1786887259737410E-03
              -8.3216926639456523E-03
              -2.1597983610228437E-03
               2.6815103628978834E-03
               1.2706801034321326E-02
              -3.5070227522691179E-03
               4.1494872023695485E-03
               2.9043775750201293E-03
              -1.0537843829918508E-05
              -8.3960646575686020E-03
               7.2020563410916012E-03
               1.1385467791010817E-02
               4.9832056123113311E-03
              -1.1896113189346962E-02
               4.7139664829317198E-03
              -4.2439893779961831E-03
               4.6653235116242741E-03
               3.2821701958531241E-03
              -1.7963627996730564E-03
               3.6387740019283117E-03
               1.8758793175027953E-03
              -1.8980275021681303E-03
              -5.6076936334338806E-04
              -8.3754281463243301E-03
              -3.9122743911831643E-03
              -2.7717641164081283E-03
               3.9939852133866124E-03
               1.8177387398029415E-03
               1.6198481920876980E-02
              -8.5232089522876316E-03
               7.0973428147706663E-03
              -2.4467915283133513E-02
               2.1660191185097006E-02
               4.7004632821854532E-03
               2.7002242179160370E-03
               4.2336157647930089E-03
               1.1008908275266561E-02
              -1.0029354361194429E-02
               4.9818618904575581E-03
              -5.0707520367164549E-03
              -3.0187698571896480E-03
               6.0479470521839817E-03
              -2.8455559655226567E-03
              -7.8608358842880074E-03
               3.7426434356712807E-03
               1.0099141041540860E-02
              -1.7943382552770696E-03
              -4.1107328914203613E-04
              -1.6532206581817394E-02
               1.9727220804985991E-02
              -8.0968988495140389E-03
               3.7915608075782068E-03
              -8.0905048397618713E-03
               5.8934924536703905E-03
              -2.9468572219425761E-03
              -9.4888227152320984E-03
              -2.9287704968445636E-03
               5.5163163060521318E-03
              -9.7994313597419549E-04
              -6.3970722988455657E-03
              -9.8833417518534913E-03
              -7.0879848518691111E-04
               1.9010813135313597E-03
               1.5062970206727044E-03
               3.8505345144210531E-03
              -3.3103659653530727E-03
               9.6358264621009156E-04
               9.2646948481719758E-03
              -1.5733142862015818E-02
               1.2619789134697855E-03
              -1.4960517600176534E-03
              -4.3575221148810205E-03
              -5.2374922128809905E-03
               4.3857098686704197E-04
               8.8865155005179077E-03
              -4.5237922763351921E-03
               1.3842907462118866E-02
              -1.5734189400930451E-02
              -6.9323233493548478E-03
               5.7030635392277176E-04
              -1.2590681393807494E-04
               1.3534864479363614E-02
               1.8463819950161669E-03
              -1.3011204424230136E-02
              -2.0503341690068363E-03
               2.0319009958065109E-02
              -6.2993695912632562E-03
               6.3060784824684538E-03
               3.2967737350727529E-03
               9.7957330585714698E-04
              -8.2252961157489972E-03
              -1.8096008739238705E-03
               1.6883647301114524E-02
              -2.0908574770013469E-02
              -2.2867904681496396E-03
               1.2776819999781495E-03
              -4.8183612528061867E-03
               6.5748194240864239E-03
               9.9783053089472348E-04
               3.3089225775918623E-04
              -7.7280269113048751E-03
              -2.9748436180293590E-03
               4.2829627989956539E-03
              -7.0499738381769430E-03
               1.9324746299691524E-03
              -1.6328667262734990E-03
               6.0761789947137643E-03
              -2.4964015796667921E-03
               1.3200644036188831E-02
               1.2986862880532400E-03
              -8.2492515569408051E-03
               3.3188631440548033E-03
              -5.4487263952332464E-03
               2.7910552505931835E-03
               1.5784742842656838E-03
              -7.2152315473620705E-03
              -1.4397816333635383E-03
               5.2493853122378316E-03
               1.7822374137559441E-04
              -3.2380934253765812E-03
              -1.7872199206621781E-03
               6.2407542115917210E-03
               5.8598137130364001E-03
               8.2144824035182331E-03
              -8.5820103114262521E-03
              -1.9383449948426278E-03
              -1.3886387328975935E-02
               3.8093850410634194E-03
               1.9767562633130030E-03
              -8.5556592919213380E-03
              -1.0300501672317870E-02
               1.4548164561166537E-02
              -1.2788029478190618E-03
              -5.1065452216550239E-04
              -1.1584368355748021E-02
              -2.0598599833635718E-03
              -2.1930250030041619E-04
               1.5599760595280645E-02
               8.4543666274499753E-03
               6.4099540784419006E-04
              -8.5085468548010256E-03
              -9.2700320337104798E-03
               1.1090474184936104E-02
              -3.8506606108752745E-03
               1.1171909195378186E-03
               3.0157063481679900E-03
               1.0416985173662969E-03
               1.5556272598010242E-03
              -7.1353390049961728E-03
              -5.4628042000655639E-03
              -1.6501535084430846E-03
               1.1211382613049350E-03
               3.8782324635839847E-03
               7.8330548028817566E-03
               1.6529715075848477E-02
              -1.5251359944142074E-02
              -2.5272055863167664E-02
               1.7660948820539361E-02
               3.7022697131384563E-04
              -2.6964252845931270E-03
               1.0686789259039971E-03
              -1.8186935475513733E-03
              -7.5054335611917881E-03
               1.9656034588934758E-02
              -1.6079482221717598E-03
               2.0650589253569081E-03
               1.7511696024282038E-03
               6.9578141528648446E-03
              -9.7389425224296798E-03
               9.2247653613169722E-03
               7.3027311822715900E-03
              -2.7366650073834941E-02
               1.5167524193548785E-02
               9.6541541554860850E-04
              -6.9033746536947965E-03
               3.2175498623265336E-03
               1.6261174273712407E-02
              -1.9297482318456790E-03
               6.7638811234980794E-04
               3.4064609524334607E-03
              -9.2071092722608473E-03
               8.0389348634274226E-03
              -5.1503216485747089E-03
               7.1549502558174421E-03
               1.7046008792668088E-03
               5.2846976565057895E-03
              -8.7074920222973348E-03
               4.5736262491878968E-03
              -1.3642476894113206E-03
              -9.0883898332972165E-03
               3.5402391952112531E-03
               4.2738295004662403E-03
               1.0582976200685617E-03
              -5.0697727580788889E-03
               7.4409825092058958E-03
               6.3562446684057071E-03
               1.0039274484324609E-02
               3.0360835950457962E-03
               6.1020472921140389E-03
               1.4123322107680238E-03
              -5.1830015117820634E-03
               9.8297261842456105E-03
               7.4528285048407455E-04
               1.3668612487165705E-02
               7.1884737625403932E-04
               1.0185212727780300E-02
               1.0937742386947976E-02
               3.0894021383970745E-04
              -1.2985667972056539E-04
               1.0808015150286505E-03
              -7.5993086290762337E-03
              -1.6349613728257863E-02
               5.1594323320723187E-03
               6.5708338654286548E-03
              -4.5018822475307195E-03
               5.5244559515411178E-03
               2.2166362490996920E-03
               5.3498716393841541E-03
               2.1775120883897130E-03
               1.0013735533530488E-02
               3.7180657962799005E-03
              -9.8174738215652431E-03
              -3.6624901218939264E-03
              -9.0697466009048693E-03
               8.2577972197268416E-03
              -1.5484047700180584E-03
              -2.0002573587121143E-03
              -5.5572134357356785E-03
               1.5631463547917856E-03
              -1.7248689986335664E-02
              -5.1203884435324764E-03
               4.2024737006280798E-03
               1.5840640221332226E-02
               4.0664486483874386E-03
              -2.8639428913916397E-03
               9.6631712076066072E-03
               6.2708264637547743E-03
               1.4328557926664631E-03
              -8.3358164097132922E-03
               1.9085306487877879E-03
               1.1619950575242073E-02
              -1.5851687478656253E-02
              -3.3390011342421051E-03
              -4.1368760195759791E-03
               2.8052435427401538E-03
              -1.3682903740331869E-03
               4.5043005848616055E-03
               1.2764600403562735E-02
               3.9146387764430381E-03
               4.0603632650230218E-03
              -2.5398556713839052E-03
               7.4295167250284571E-03
              -1.7923261503380658E-04
              -4.1733585862648338E-03
               3.0881437274276574E-03
               1.5378147375001430E-03
              -2.9237798727817597E-03
              -2.0038340099128493E-04
              -2.8691153204049246E-03
               2.5850780878058036E-03
               9.9559247177257813E-03
              -3.1908370941747723E-03
               8.2721055669287957E-03
               1.0613775123110186E-02
               4.1270303715659103E-03
              -2.6841334256816098E-03
              -1.0671905738950578E-02
              -1.4114451376130131E-02
               1.3826120463740276E-02
               1.7589409813572620E-03
               1.7586834856758650E-03
               8.6618652205280883E-03
               3.0795897296747457E-03
               5.7835506467968393E-03
              -1.4963089508314069E-02
               1.6606833336540464E-02
               8.3509768830224030E-03
              -1.7095980378556346E-02
              -3.0779051310695893E-03
               1.5576937946418354E-03
               9.2167213747214264E-03
               2.1616302695676094E-03
              -5.8397752635298795E-03
               8.7355118744681833E-03
              -7.6456857587834919E-03
               8.8398377907464862E-04
               4.2996974209664595E-03
              -1.2606296109866306E-02
              -7.5516453197884640E-03
               2.7819540825457785E-03
              -6.8661864149621602E-04
               1.0721200637669173E-02
              -5.7808728135972289E-03
              -4.4773087680609596E-03
               5.9744234266017535E-03
               5.1067115370364022E-03
              -1.8660279600979804E-03
              -2.4602183055568981E-03
              -1.4098190541196414E-03
              -1.2068312134494641E-03
               1.0896116986990135E-02
               7.3181854677854445E-03
              -9.3621487125104801E-03
               8.0956989376303173E-03
               1.1064543708377905E-02
              -3.2668458309317006E-03
               4.7584307715147489E-03
               7.1030240596602805E-03
               4.3713215194617783E-03
              -4.9763372436156233E-03
               6.7992654980388919E-03
               1.4995467953386435E-03
              -3.5861643083708165E-03
               1.1869820667391728E-02
              -4.5524205064269661E-03
               6.5348216001515384E-03
               1.0680721851027357E-02
              -5.1655457868942699E-03
               5.2371997117377977E-03
               5.7804544901157067E-03
              -4.6632527184023295E-03
              -7.1101926328102861E-04
              -5.8635754579379508E-03
               2.9652888184032527E-03
              -1.2895289297009836E-03
              -3.4796693042928989E-03
               1.3032791726745408E-03
               1.7362660667089972E-03
               6.4521960012180954E-03
               5.8215945488946904E-04
               1.7840203192287889E-02
              -7.8320015758133856E-04
               7.5036366434640426E-03
               1.8505726366324048E-03
              -4.4125384392236305E-04
               7.8949182273712953E-04
              -2.7228500929682774E-03
               7.6607455560266885E-05
              -3.8947795854947466E-03
              -4.1231740354480736E-03
              -2.9009645546988162E-03
               1.3166047042865557E-02
              -2.0522303150677110E-03
              -3.2803573283261478E-03
              -1.3460149426776241E-03
              -2.0693093274244317E-02
               6.9421922873019746E-03
               1.5051283157062469E-02
               1.3909339435624935E-02
               1.1139102024978304E-03
              -4.1548399419315237E-03
         &END THERMOSTAT_ENERGY
         &RNG_INIT
Wiener process for Thermostat # 1        1 F T T  -1.3877964172148927E+00        3819968671.0        1923139303.0        2505174482.0        1129753110.0        1102497896.0        2318485114.0             12345.0             12345.0             12345.0             12345.0             12345.0             12345.0             12345.0             12345.0             12345.0             12345.0             12345.0             12345.0
Wiener process for Thermostat # 2        1 F T T   5.9690975612399577E-01        1863048650.0        1167059563.0        4156553466.0        2659491592.0        2500563110.0        2967422577.0        3692455944.0        1366884236.0        2968912127.0         335948734.0        4161675175.0         475798818.0        3692455944.0        1366884236.0        2968912127.0         335948734.0        4161675175.0         475798818.0
Wiener process for Thermostat # 3        1 F T T  -1.9577134425325560E-01        2029679022.0        1992813296.0        1475024831.0        3744841000.0        4231717232.0        1872789393.0        1015873554.0        1310354410.0        2249465273.0         994084013.0        2912484720.0        3876682925.0        1015873554.0        1310354410.0        2249465273.0         994084013.0        2912484720.0        3876682925.0
Wiener process for Thermostat # 4        1 F T T  -5.5423907268054418E-01         972191078.0        3239779000.0        2283144792.0        4029872124.0        2868550739.0         388907277.0        2338701263.0        1119171942.0        2570676563.0         317077452.0        3194180850.0         618832124.0        2338701263.0        1119171942.0        2570676563.0         317077452.0        3194180850.0         618832124.0
Wiener process for Thermostat # 5        1 F T T  -3.6874052824979625E-01         246061856.0        2033992607.0        4208640487.0        3425480013.0        1713937449.0        3033523858.0        1597262096.0        3906379055.0        3312112953.0        1016013135.0        4099474108.0         275305423.0        1597262096.0        3906379055.0        3312112953.0        1016013135.0        4099474108.0         275305423.0
Wiener process for Thermostat # 6        1 F T T   5.7875332706651861E-01        4268450248.0        1240555256.0        2123119467.0         299173953.0        2368881629.0        2698044585.0          97147054.0        3131372450.0         829345164.0        3691032523.0        3006063034.0        4259826321.0          97147054.0        3131372450.0         829345164.0        3691032523.0        3006063034.0        4259826321.0
Wiener process for Thermostat # 7        1 F T T  -1.8983145396195047E+00        4260312323.0         705196258.0         937296972.0        1373994383.0        3179698350.0        3757299263.0         796079799.0        2105258207.0         955365076.0        2923159030.0        4116632677.0        3067683584.0         796079799.0        2105258207.0         955365076.0        2923159030.0        4116632677.0        3067683584.0
Wiener process for Thermostat # 8        1 F T T  -3.3116685260855833E-01        2351531572.0        3477839446.0        1021048571.0        1975906828.0        1893564842.0         777663015.0        3281794178.0        2616230133.0        1457051261.0        2762791137.0        2480527362.0        2282316169.0        3281794178.0        2616230133.0        1457051261.0        2762791137.0        2480527362.0        2282316169.0
Wiener process for Thermostat # 9        1 F T T   1.4386427466100791E+00        3265425123.0        2999969280.0        3048908474.0        1047403656.0         134736569.0        4209884843.0        3777646647.0        1837464056.0        4204654757.0         664239048.0        4190510072.0        2959195122.0        3777646647.0        1837464056.0        4204654757.0         664239048.0        4190510072.0        2959195122.0
Wiener process for Thermostat # 10       1 F T T  -2.3947144259907721E-01        2825100143.0        2025717467.0        3827127036.0        1422979577.0        1026966836.0        1481957392.0        4215590817.0        3862461878.0        1087200967.0        1544910132.0         936383720.0        1611370123.0        4215590817.0        3862461878.0        1087200967.0        1544910132.0         936383720.0        1611370123.0
Wiener process for Thermostat # 11       1 F T T   2.8146058156813852E-01        3161233422.0        2404453347.0        1673723662.0         906337025.0          73303549.0        1016746719.0        1683636369.0         362165168.0         814316280.0         869382050.0         980203903.0        2062101717.0        1683636369.0         362165168.0         814316280.0         869382050.0         980203903.0        2062101717.0
Wiener process for Thermostat # 12       1 F T T  -6.6211933450441895E-01         208754144.0        1983222026.0        1378772639.0         460703296.0         651350573.0        3898252829.0         272317999.0         166758548.0         310112982.0         201045826.0        1680231254.0         118290799.0         272317999.0         166758548.0         310112982.0         201045826.0        1680231254.0         118290799.0
Wiener process for Thermostat # 13       1 F T T   2.2418582236869027E-02         545702192.0         878923556.0         464381839.0        1267067492.0        3004786620.0        2258194530.0        2245755202.0        1652682525.0        2865544364.0         721509566.0         209733568.0         592362218.0        2245755202.0        1652682525.0        2865544364.0         721509566.0         209733568.0         592362218.0