 # Version information for this restart file 
 # current date 2023-12-13 17:57:11.481
 # current working dir /scratch/work/courses/CHEM-GA-2671-2023fa/students/sea438/comp-lab-class-2023/Week12/Runs/Proton
 # Program compiled at                              Sat Dec 12 18:27:15 EST 2020
 # Program compiled on                                         cs001.nyu.cluster
 # Program compiled for                                                nyu-intel
 # Source code revision number                                       git:8c64c6e
 &GLOBAL
   PRINT_LEVEL  LOW
   PROJECT_NAME proton_aimd_1ps_every0.5fs
   RUN_TYPE  MD
   WALLTIME 21600
 &END GLOBAL
 &MOTION
   &GEO_OPT
     OPTIMIZER  BFGS
     MAX_ITER  100
     MAX_DR     3.0000000000000001E-03
     &BFGS
     &END BFGS
   &END GEO_OPT
   &MD
     ENSEMBLE  NVT
     STEPS  2000
     TIMESTEP     4.9999999999999994E-01
     STEP_START_VAL  500
     TIME_START_VAL     2.4999999999999795E+02
     ECONS_START_VAL    -1.1027761563273546E+03
     TEMPERATURE     3.0000000000000000E+02
     &THERMOSTAT
       TYPE  GLE
       REGION  MASSIVE
       &GLE
         NDIM  5
         A_SCALE     1.0000000000000000E+00
         A_LIST     1.8595758612559999E+02    2.7263853498399998E-01    1.1526100454610001E+01   -3.6414578262600003E+01 \
             2.3173375816020001E+02
         A_LIST    -2.7809524712060002E-01    8.5951591808710006E-05    7.2189048017650004E-01   -1.9844539343859999E-01 \
             4.2409257583420001E-01
         A_LIST    -1.4825808131210000E+01   -7.2189048017650004E-01    1.3590902121280000E+00    5.1498896280349999E+00 \
            -9.9949268450990001E+00
         A_LIST    -1.0372189126880000E+01    1.9844539343859999E-01   -5.1498896280349999E+00    2.6661910891169999E+01 \
             1.1507715495310000E+01
         A_LIST     2.1801346360420001E+02   -4.2409257583420001E-01    9.9949268450990001E+00   -1.1507715495310000E+01 \
             3.0958394565589998E+02
         &THERMOSTAT_ENERGY
              -1.3269928046850826E-03
               8.2089109607605838E-04
              -7.1090727962596202E-04
              -1.3117813797631070E-03
              -5.7544753112923870E-03
               5.6391305041905626E-03
              -4.6298424696041901E-03
              -1.8723170586952441E-03
               4.4513137600134004E-03
               1.5338423397209984E-03
               6.9747592349211863E-03
              -2.0939929972928133E-03
               2.8052272769361923E-03
              -1.8358590707954741E-03
              -1.5571596457701574E-03
              -4.0423393015113444E-03
               3.0929354298003487E-03
              -3.7113957440946836E-03
               4.4501223946756211E-03
              -1.2274506159819418E-03
               1.8317093720499585E-03
              -3.2588695240555925E-03
               1.3195054056104986E-03
               3.8258645545227337E-03
              -1.2849740765350571E-03
              -4.2617316898050780E-03
              -2.2323356885883068E-04
               2.9484747083929315E-03
              -1.9196257316597396E-03
              -3.2064390405758526E-04
              -1.9026733346302225E-03
               4.2641299217172539E-03
               1.2634711406748479E-02
              -4.2369160613831688E-03
               5.7222368263409266E-04
               5.8201772711554281E-03
              -2.0159509764538291E-03
               6.5070356839325388E-04
               4.8306826203888562E-04
              -5.7459090036006775E-03
               2.3726500269982001E-03
              -2.6428323147248233E-04
               2.4057745994641166E-03
               2.4694390602177430E-03
              -4.3537707548386428E-03
               3.0614149376469984E-03
              -1.1728740486108096E-03
               4.9408446234893433E-03
              -2.8686293768227121E-03
              -1.0612076733057109E-03
              -2.8401328682631580E-04
              -6.7942243593378422E-03
              -2.1791987722337312E-03
               9.3832402998620043E-03
              -4.4855638375236708E-03
               3.7065878926389762E-04
              -1.0182546870187283E-05
              -1.6091312216633506E-03
               1.2187187569636315E-03
               3.3228180294410611E-03
              -2.5313981452173087E-04
               3.2086032028511495E-03
               5.8617133139553176E-03
               4.5665432886306766E-04
              -3.1309455725136992E-03
              -3.5748292600405024E-04
              -4.5129855013505494E-03
               5.1929255428105371E-03
               5.4240297883185254E-03
              -3.5998108699442219E-03
               1.3207596525443024E-03
              -2.3286136404533563E-04
              -8.7169447149988699E-04
               1.4896541871295577E-03
              -7.2789364498151467E-05
              -3.6561204228888126E-03
               2.4678274148167418E-03
               4.0733707062075453E-03
               7.4931761531355787E-03
              -2.6690782692544738E-03
              -2.9507464639258211E-03
              -5.7320074927143911E-04
               1.5860510598631945E-03
              -2.7941978915531950E-03
               1.9866758068738635E-03
              -2.4928979922912036E-05
              -4.7985996335000239E-03
              -4.6173070950795893E-04
               1.7509693812331308E-03
              -5.6826214181685247E-05
               3.3538258962765802E-03
              -5.0529997357346753E-03
              -7.1487994807523927E-04
              -1.6800017937009110E-03
              -7.0409910638900277E-03
               3.1013156174037881E-03
              -2.0133537288553553E-03
               2.1841348819535374E-03
               2.1711420178643650E-03
               4.1587220690294418E-04
              -2.0872442472671925E-05
              -2.8397810674370616E-03
              -2.5444692729132403E-03
              -3.0345583809760017E-03
               3.9651578172937912E-03
               6.0607083496456498E-03
               1.8889744008389788E-03
              -2.8812135284945342E-03
               3.9389567792074880E-03
              -7.9467782321304909E-04
               8.0283272514856073E-04
              -7.9379227375008183E-04
               1.4992264384917475E-03
               1.2748540072749501E-03
               1.6156948457765005E-03
               3.8765437760927266E-03
              -5.4580977238628762E-03
               3.9806417242718509E-03
              -5.9651711174726124E-03
              -1.1898802456375879E-04
              -2.2923918593904624E-03
               6.9151477594308584E-03
               2.5375051599504910E-03
               7.4082234592079800E-03
              -3.4463240078772511E-03
              -4.2729271001525947E-03
              -1.2604419338172394E-03
               2.0083655013974928E-03
               4.7930213478492873E-03
               4.5362057737910674E-03
               1.9871039190612349E-04
               9.7201268724868240E-04
              -1.0843460608786525E-03
               2.4465757093734982E-03
              -4.9532653939004427E-03
               8.4569026523600315E-06
              -3.3949082470412614E-03
              -4.6171385336034418E-04
               8.7542077667519336E-04
              -5.7302122251598423E-03
               7.3373757311348316E-03
               2.8037823611613160E-03
               2.6257957896378640E-03
              -1.8393728442654171E-03
              -3.0531196204866573E-03
              -2.9711836549432239E-03
               7.8214947424009402E-04
              -1.8475319731465125E-03
              -2.0290636662962775E-03
               6.8727123500908812E-03
              -9.3469114966119411E-05
               1.0306292477448400E-03
              -7.5147575374497988E-04
              -1.1358338343929290E-03
               6.0718613332806073E-04
              -2.6864813435403560E-03
               2.5318943915955288E-03
               1.8761496153572735E-03
              -3.5812448828324954E-03
               4.2642279591195154E-03
              -5.1601090457651516E-03
              -6.3422455609983433E-04
              -1.4196008836041903E-03
               1.0277885020989388E-03
               6.2172202730250313E-03
               6.2600533709174545E-03
               6.0983079996370379E-03
              -7.4756773830542481E-03
              -3.3739469763559328E-03
               2.8274559953378464E-04
              -1.3467629832769629E-03
               9.3828128376447807E-04
               1.9186798281127580E-03
               2.1572099296411958E-03
              -4.5246427219448283E-03
               3.7280004936716379E-04
               5.4748793235815264E-03
              -4.2672643023183732E-03
               6.4200903249932921E-04
               6.6534432528567887E-03
              -1.3173066624159223E-03
               1.5201133672233195E-03
               3.0743017343329818E-03
              -6.3665407243783537E-03
               1.5347559286271462E-03
               4.9580048605299591E-05
              -1.4741196458189943E-03
               5.7990163462560609E-03
              -2.4142017255131694E-03
              -1.1336188251322057E-03
               9.8824050374843986E-05
              -2.6243171462236158E-03
               5.0122217058347690E-03
              -2.2995306798485739E-03
               4.5036813400262050E-04
              -3.0616956804777047E-03
               3.4043876103493067E-03
              -2.5767924218725855E-04
               3.3677367309248828E-04
              -1.0683819948903710E-03
               4.6682127575265787E-04
              -8.3412205845334001E-04
               1.9809616817445105E-03
              -8.9423511643966971E-04
              -7.6536884591320705E-03
              -1.5953152643478779E-03
              -1.8488813002018531E-03
               7.6642825991781209E-04
              -9.7649073408921411E-04
               3.6341208976541019E-03
              -1.0592485740132432E-03
               5.8632687424282491E-04
               3.7600831986447174E-03
               5.6592508896306153E-04
               5.9815684017909716E-03
              -2.4464666361212178E-03
              -2.0725021464905757E-03
              -7.5336319772557306E-04
               1.3044343480145509E-04
              -3.9632493881679104E-03
              -1.4502999164610170E-03
              -9.2570862355128398E-04
               1.2137074639964847E-03
              -2.6326641482880757E-03
              -1.3597182386138893E-03
               9.9732023343245641E-04
               6.4724238297309022E-04
               4.3445395455717472E-03
              -5.6903440563845446E-03
               4.0431240550402488E-03
              -9.9670487996848297E-03
               4.1456699717470633E-03
               8.7864330230480858E-03
              -2.9708822614631018E-03
              -1.0492394772843973E-03
              -1.5456209193618377E-03
              -1.6227856811858858E-03
               1.7734459059096344E-03
              -1.3115205701915540E-03
               1.4508162084330488E-03
               5.4023127712090439E-03
              -3.8262540864445849E-03
               7.1955899749107481E-03
               3.5717404867842786E-03
              -2.2991053820656353E-03
               8.2070756032708394E-04
              -1.5848518762956775E-03
               6.4233209455595618E-04
               1.7562707334563611E-03
              -4.7988876646585235E-03
               3.2915886291333732E-03
               9.3533352267668242E-04
              -1.5882539708803834E-03
               5.6286299482047786E-04
              -2.9752325450119589E-04
              -6.6608770889648450E-03
               4.7756444151300734E-03
              -4.9871951860277358E-04
              -1.0580826527921087E-03
              -6.5934074362070764E-03
               5.5450718344129861E-03
               1.4150717442141115E-03
               1.8178071473606797E-03
               5.1752809207454582E-03
               4.4964369118983866E-04
              -6.6100759390730285E-03
              -3.1807414182173296E-04
               5.2291383216457278E-04
              -1.6807995183824183E-03
               2.1075351055507401E-05
              -2.4959629993274520E-03
              -2.5896118690320632E-03
               1.6316450648615356E-03
               4.1321690604752947E-03
               2.5312697876774693E-03
              -4.3929116931852520E-04
              -4.3170763404344874E-03
               3.3381548711114957E-03
              -6.9468820057871942E-03
               2.5059549671115223E-03
              -7.5607119369088910E-05
               3.8748735629766514E-03
               5.0003133826238321E-03
              -3.5646247010881660E-03
              -4.6989350432010786E-03
               3.4638865456946984E-03
               2.2576864326634730E-04
              -5.1536502299564801E-03
              -2.8856487642543015E-03
               2.2813381700897343E-03
              -2.0097277866474358E-04
               6.8665294268831700E-04
               3.2154773955895312E-03
              -2.8926914084614077E-03
              -9.1625824834397178E-04
               2.4486472779418119E-03
              -7.6905988389682949E-03
              -2.4951353693701372E-03
               7.9404289816831686E-04
              -2.8626915211716420E-03
              -3.8615769411494976E-03
               5.6094613966573767E-03
               3.4548214635975048E-03
               7.0364124566057703E-04
               6.1003236286683964E-03
              -2.8067814679719745E-03
              -1.5885634686143213E-03
               4.4947163514696732E-05
               2.4771468573744223E-03
               3.8580765249644619E-03
               1.5932027423663374E-03
              -9.9420384558677813E-03
               4.7655054372516652E-03
               3.4916941778854712E-03
               1.8166487210064404E-03
               1.3916568871336296E-03
               2.3199362291846106E-04
               3.2303795016248053E-03
              -2.7310427604046277E-04
              -5.6643395500646765E-05
               9.2076325993848858E-03
              -1.8646937112303729E-03
              -7.1211509488957377E-03
               4.6301575728668548E-03
               1.3615672227100897E-03
               4.4585202138132506E-03
               2.2391637336195524E-03
               3.9066495087245736E-03
              -2.0883449092296801E-03
              -4.4531052858012765E-03
              -3.3857016939804047E-04
              -9.4715532855281781E-03
               6.0468115958398072E-03
               7.0776403792680389E-04
               1.1299807818275311E-03
              -5.1745677599493130E-04
               7.6978003354778966E-03
               1.6164642825333459E-03
              -5.7831926984182203E-03
              -1.8378001750024916E-03
              -9.8899110490168504E-04
               9.8635269188357281E-04
               1.7143470068523218E-03
               6.0924372751411490E-04
              -1.4591974184738424E-03
              -2.2455717443200154E-03
               4.6202860505842550E-03
              -2.4517733113072686E-03
              -4.0930658423342457E-03
              -3.7403190589784664E-03
               4.5312695071694376E-03
               5.4406897673119599E-03
              -7.5614761769522074E-03
               6.4348745928143264E-04
              -1.1216314689088296E-03
               5.0717766541557418E-03
              -1.9889985497478797E-03
              -4.5796152728997085E-03
              -2.6257180176366382E-03
               1.0099478492100722E-02
              -1.8351002992181601E-03
               3.1989234132566880E-04
              -4.4693663806798520E-03
              -8.3429549416206908E-03
               1.7482609106934147E-03
               1.2084008959416451E-02
               2.3899427466585865E-03
              -6.2694040886761661E-04
              -2.5132038813635111E-03
              -2.6059811273716456E-04
               1.6927194713227372E-03
              -1.3023621828277940E-03
              -9.6150044735229846E-03
              -1.3972822355339341E-03
               4.8177495167239627E-03
              -2.8346196868113491E-03
               1.4686198990710574E-03
               6.2915637810914008E-03
              -1.6377162911657089E-03
              -1.8455225314371795E-03
              -1.4761432890797244E-03
               5.7958425183205443E-03
               9.1119215180074358E-03
              -1.7753812147410591E-03
              -1.2782645818827090E-02
               5.1261510624505775E-03
              -1.5548154601869877E-03
              -5.2177323724083751E-03
               7.7833361602029942E-04
              -1.0809772953173529E-03
               8.3762753714147092E-04
              -3.9503495343536728E-04
               2.9203775701781808E-03
               5.7538509732700475E-03
              -4.6820149468308238E-03
              -1.3240504391900994E-03
              -3.1517975359150220E-03
               2.1874541659015366E-03
               7.7090854888357666E-04
              -6.6239219459965429E-03
              -1.4346368578447844E-04
               6.2256750730292198E-03
              -1.0380919021582823E-02
               4.0510058722364834E-03
               5.3109052269847429E-03
              -1.0473579306899507E-03
              -2.6069233457095236E-03
               5.0274892916294008E-03
              -6.4566485955976126E-03
               9.0234753355635672E-04
               2.3367899479271935E-03
              -1.3287762693004719E-03
               4.0848927752575276E-04
               4.8703400117231649E-03
              -6.0965340241108425E-03
               7.8388000391062143E-04
               1.7295971754294952E-03
              -3.0107228031550784E-03
               1.3095230776087401E-03
               1.4965979657237541E-02
              -3.7662806556159009E-03
              -3.9632092357813717E-04
               5.4673914467702391E-03
               6.1949078246184017E-03
               5.3169898124635021E-03
               3.3195053901977686E-03
               1.4041176746208158E-02
               4.4621093364975023E-03
              -6.1886428683640693E-03
               8.8484725436468285E-03
               5.0487601125418606E-03
               1.0773283935353647E-02
               5.9391228523515104E-03
               1.3812736188995717E-02
               3.1097652664234107E-03
               3.3166244625120519E-03
               2.9444497391116773E-03
              -7.2695106180421581E-04
               1.3493927715805616E-03
              -2.8598889156047965E-03
               2.3914979646189123E-03
               3.3712176807714662E-03
              -2.8469491329729093E-04
               3.4747125569548690E-03
              -4.3482529599289725E-04
               8.2852105639066483E-03
               5.4623643121169962E-03
              -1.2525623501453058E-03
              -2.7836456923290508E-03
              -2.8833624307549348E-03
              -6.1929451853130302E-04
              -7.2401142247983472E-03
               7.6401006466851919E-03
               2.3339046962758594E-04
              -2.9798346766905836E-04
              -8.5457479915426632E-05
              -6.7819937725311545E-04
              -5.8206365033884708E-04
              -2.0890999746797641E-03
               2.2168410268320277E-03
              -6.7305577227730524E-04
               1.2698478442354040E-03
              -1.3745310889223183E-03
               1.1269989200052562E-03
               6.4066314087097165E-03
               1.9040271465142005E-03
              -6.6494621985804621E-05
              -3.0273182023945258E-03
               3.9128398159176811E-03
              -1.3779402986061577E-04
              -3.9743466844078682E-03
              -1.3152049023227050E-03
               3.3362385426452313E-03
              -1.6951073619555831E-03
              -2.6749545510767431E-03
               4.5344983654018950E-03
               5.4664603008269573E-03
               2.7539419340511144E-03
              -3.0368840039105647E-03
               5.4224921361250020E-03
               4.2090387936884795E-04
              -5.1042782994797811E-04
               9.2107048157882463E-04
               3.1636586728648877E-03
              -1.2619817382030327E-03
              -2.7136176458790935E-03
              -6.9117247219671076E-04
              -6.7756902976880782E-03
               2.5145625087247369E-03
              -1.0008855300230107E-03
               9.2967518891351074E-04
               4.5024687920314456E-03
              -2.2870597501621777E-03
              -2.9617199473198469E-03
              -1.4998158773458098E-03
              -5.4001249913989951E-03
               8.4419357215691406E-03
               8.3784584724227052E-03
               4.9477936986331225E-03
               4.1512306540357532E-03
              -1.1736374708931486E-03
              -9.8583181173238785E-04
              -1.0406131464075742E-02
               7.0483666813062089E-03
              -4.2790243370018658E-03
              -5.5011632228250439E-03
               4.6835374800911888E-03
              -9.3356380875819257E-04
               1.3692640770327320E-03
               9.5310000445698330E-04
               3.8722906627642354E-03
               8.4397935586875083E-04
              -3.4735979402781185E-03
              -3.6510295354865623E-03
               1.1581463148387448E-03
               1.2323886829238547E-03
              -4.7278377972467074E-03
               3.3120943057691052E-03
               4.4631874454068030E-03
              -2.1450350899342640E-03
               4.1515568915410483E-04
              -3.1253818068716637E-03
               2.9435762526280719E-03
               1.9571444670330443E-03
              -3.1657313438296954E-03
               1.1641533903779268E-03
              -2.7604529372668328E-03
               1.0236572675996034E-03
               1.0249977647729575E-02
               4.6165325377218224E-03
              -7.0715129783309790E-03
               2.4466245648402721E-04
               6.0134181520134587E-03
              -6.5232609043855173E-03
               3.2649364392753001E-03
               1.3555263691264262E-03
               1.3023218574120040E-03
              -7.7329415991740831E-04
               1.8387585326535606E-03
               1.7563924917013277E-04
               2.7653997774087793E-03
              -1.0548139627490534E-03
              -1.9676103086800093E-03
               4.3308763605813235E-03
               5.0912639123744715E-03
              -1.0124251710140627E-04
              -3.5100396656653817E-03
               8.5262888369014890E-03
              -2.2598887249142725E-03
              -3.9794524679871105E-03
              -3.9286148226055761E-03
               3.9794383326464903E-03
              -2.4406827216788057E-03
              -4.4590185204101507E-04
              -8.3135926394684089E-04
              -5.1633860836442641E-03
               6.6823262887046313E-05
               1.5516846648580757E-04
               1.0005789608609048E-02
               1.4068016900251122E-03
               6.9809170652050008E-03
               2.8856273743653573E-03
              -8.4592687116489271E-04
               7.8909516584430581E-04
              -6.6523630030411582E-04
               4.9016646782316462E-03
              -6.6715869608019460E-03
              -4.8840387097001383E-03
               8.6450278585901204E-03
              -4.9991971398147513E-03
               1.8770763346282818E-03
              -4.3944827332482927E-03
              -3.5396167437159332E-03
              -7.2504343715948834E-03
              -1.5548990644784477E-03
              -3.3721168524947762E-04
               2.1867769897360150E-03
               5.1077735127819579E-03
              -9.8904004037762773E-04
         &END THERMOSTAT_ENERGY
         &RNG_INIT
Wiener process for Thermostat # 1        1 F T T  -1.5505429657892764E+00         661802595.0        2026459976.0        3136775027.0        3268219721.0        1056216878.0        3744216088.0             12345.0             12345.0             12345.0             12345.0             12345.0             12345.0             12345.0             12345.0             12345.0             12345.0             12345.0             12345.0
Wiener process for Thermostat # 2        1 F T T   1.5766939834860993E-01        2521559082.0        1979391111.0        3972826820.0        2839528192.0        3960449033.0        3051881342.0        3692455944.0        1366884236.0        2968912127.0         335948734.0        4161675175.0         475798818.0        3692455944.0        1366884236.0        2968912127.0         335948734.0        4161675175.0         475798818.0
Wiener process for Thermostat # 3        1 F T T  -1.6802103653762466E+00        2464096834.0        3454226368.0         668358963.0        3607867155.0        2139338144.0        1695442074.0        1015873554.0        1310354410.0        2249465273.0         994084013.0        2912484720.0        3876682925.0        1015873554.0        1310354410.0        2249465273.0         994084013.0        2912484720.0        3876682925.0
Wiener process for Thermostat # 4        1 F T T  -9.2120442907176847E-01        3007810664.0         626544053.0           5688727.0        2019501767.0        4050809287.0        2188826537.0        2338701263.0        1119171942.0        2570676563.0         317077452.0        3194180850.0         618832124.0        2338701263.0        1119171942.0        2570676563.0         317077452.0        3194180850.0         618832124.0
Wiener process for Thermostat # 5        1 F T T   1.9586792436148486E+00        3119398129.0        2238966874.0        1731687009.0        1729823850.0        3912388439.0         182524877.0        1597262096.0        3906379055.0        3312112953.0        1016013135.0        4099474108.0         275305423.0        1597262096.0        3906379055.0        3312112953.0        1016013135.0        4099474108.0         275305423.0
Wiener process for Thermostat # 6        1 F T T  -2.2012851380256623E-01         527820745.0        2447393615.0         338698828.0         653439858.0         976211817.0        3944196308.0          97147054.0        3131372450.0         829345164.0        3691032523.0        3006063034.0        4259826321.0          97147054.0        3131372450.0         829345164.0        3691032523.0        3006063034.0        4259826321.0
Wiener process for Thermostat # 7        1 F T T  -1.2191095662093037E-02         167278661.0        2992638024.0        1197931920.0         124710794.0         889033703.0        2194094787.0         796079799.0        2105258207.0         955365076.0        2923159030.0        4116632677.0        3067683584.0         796079799.0        2105258207.0         955365076.0        2923159030.0        4116632677.0        3067683584.0
Wiener process for Thermostat # 8        1 F T T  -2.6373530393371375E-01        2923147749.0        3809475671.0         892364519.0        3114385888.0        3523415917.0        3402922821.0        3281794178.0        2616230133.0        1457051261.0        2762791137.0        2480527362.0        2282316169.0        3281794178.0        2616230133.0        1457051261.0        2762791137.0        2480527362.0        2282316169.0
Wiener process for Thermostat # 9        1 F T T  -1.2388913960989989E+00         276694386.0        3384434371.0        2194062143.0        3864498526.0        2498625561.0        4174179731.0        3777646647.0        1837464056.0        4204654757.0         664239048.0        4190510072.0        2959195122.0        3777646647.0        1837464056.0        4204654757.0         664239048.0        4190510072.0        2959195122.0
Wiener process for Thermostat # 10       1 F T T  -6.9271884074884071E-01         298842605.0        4183294382.0        3769908432.0        1623977651.0        3452521187.0         349927101.0        4215590817.0        3862461878.0        1087200967.0        1544910132.0         936383720.0        1611370123.0        4215590817.0        3862461878.0        1087200967.0        1544910132.0         936383720.0        1611370123.0
Wiener process for Thermostat # 11       1 F T T  -3.9199517781213300E-01        1183014876.0        2469777470.0        2706060047.0        1374668043.0         490283634.0         131761905.0        1683636369.0         362165168.0         814316280.0         869382050.0         980203903.0        2062101717.0        1683636369.0         362165168.0         814316280.0         869382050.0         980203903.0        2062101717.0
Wiener process for Thermostat # 12       1 F T T   1.2248374085476998E+00         744312290.0        1838623065.0        1895433531.0        2930723882.0        3034111406.0        1223209339.0         272317999.0         166758548.0         310112982.0         201045826.0        1680231254.0         118290799.0         272317999.0         166758548.0         310112982.0         201045826.0        1680231254.0         118290799.0
Wiener process for Thermostat # 13       1 F T T   1.6053528300026945E-02         341235087.0         365462780.0         607175623.0        3292057964.0        1611524565.0         256574977.0        2245755202.0        1652682525.0        2865544364.0         721509566.0         209733568.0         592362218.0        2245755202.0        1652682525.0        2865544364.0         721509566.0         209733568.0         592362218.0